*SPEF "ieee 1481-1999"
*DESIGN "top"
*DATE "11:11:11 Fri 11 11, 1111"
*VENDOR "OpenRCX"
*PROGRAM "Parallel Extraction"
*VERSION "1.0"
*DESIGN_FLOW "NAME_SCOPE LOCAL" "PIN_CAP NONE"
*DIVIDER /
*DELIMITER :
*BUS_DELIMITER []
*T_UNIT 1 NS
*C_UNIT 1 PF
*R_UNIT 1 OHM
*L_UNIT 1 HENRY

*NAME_MAP
*3 clk
*4 i_valid
*5 i_value0[0]
*6 i_value0[1]
*7 i_value0[2]
*8 i_value1[0]
*9 i_value1[1]
*10 i_value1[2]
*11 i_value2[0]
*12 i_value2[1]
*13 i_value2[2]
*14 i_value3[0]
*15 i_value3[1]
*16 i_value3[2]
*17 i_value4[0]
*18 i_value4[1]
*19 i_value4[2]
*20 o_bucket[0]
*21 o_bucket[1]
*22 o_bucket[2]
*23 o_index[0]
*24 o_index[1]
*25 o_index[2]
*26 o_valid
*27 rst_n
*28 _000_
*29 _001_
*30 _002_
*31 _003_
*32 _004_
*33 _005_
*34 _006_
*35 _007_
*36 _008_
*37 _009_
*38 _010_
*39 _011_
*40 _012_
*41 _013_
*42 _014_
*43 _015_
*44 _016_
*45 _017_
*46 _018_
*47 _019_
*48 _020_
*49 _021_
*50 _022_
*51 _023_
*52 _024_
*53 _025_
*54 _026_
*55 _027_
*56 _028_
*57 _029_
*58 _030_
*59 _031_
*60 _032_
*61 _033_
*62 _034_
*63 _035_
*64 _036_
*65 _037_
*66 _038_
*67 _039_
*68 _040_
*69 _041_
*70 _042_
*71 _043_
*72 _044_
*73 _045_
*74 _046_
*75 _047_
*76 _048_
*77 _049_
*78 _050_
*79 _051_
*80 _052_
*81 _053_
*82 _054_
*83 _055_
*84 _056_
*85 _057_
*86 _058_
*87 _059_
*88 _060_
*89 _061_
*90 _062_
*91 _063_
*92 _064_
*93 _065_
*94 _066_
*95 _067_
*96 _068_
*97 _069_
*98 _070_
*99 _071_
*100 _072_
*101 _073_
*102 _074_
*103 _075_
*104 _076_
*105 _077_
*106 _078_
*107 _079_
*108 _080_
*109 _081_
*110 _082_
*111 _083_
*112 _084_
*113 _085_
*114 _086_
*115 _087_
*116 _088_
*117 _089_
*118 _090_
*119 _091_
*120 _092_
*121 _093_
*122 _094_
*123 _095_
*124 _096_
*125 _097_
*126 _098_
*127 _099_
*128 _100_
*129 _101_
*130 _102_
*131 _103_
*132 _104_
*133 _105_
*134 _106_
*135 _107_
*136 _108_
*137 _109_
*138 _110_
*139 _111_
*140 _112_
*141 _113_
*142 _114_
*143 _115_
*144 _116_
*145 _117_
*146 _118_
*147 _119_
*148 _120_
*149 _121_
*150 _122_
*151 _123_
*152 _124_
*153 _125_
*154 _126_
*155 _127_
*156 _128_
*157 _129_
*158 _130_
*159 _131_
*160 _132_
*161 _133_
*162 _134_
*163 _135_
*164 _136_
*165 _137_
*166 _138_
*167 _139_
*168 _140_
*169 _141_
*170 _142_
*171 _143_
*172 _144_
*173 _145_
*174 _146_
*175 _147_
*176 _148_
*177 _149_
*178 _150_
*179 _151_
*180 _152_
*181 _153_
*182 _154_
*183 _155_
*184 _156_
*185 _157_
*186 _158_
*187 _159_
*188 _160_
*189 _161_
*190 _162_
*191 _163_
*192 _164_
*193 _165_
*194 _166_
*195 _167_
*196 _168_
*197 _169_
*198 _170_
*199 _171_
*200 _172_
*201 _173_
*202 _174_
*203 _175_
*204 _176_
*205 _177_
*206 _178_
*207 _179_
*208 _180_
*209 _181_
*210 _182_
*211 _183_
*212 _184_
*213 _185_
*214 _186_
*215 _187_
*216 _188_
*217 _189_
*218 _190_
*219 _191_
*220 _192_
*221 _193_
*222 _194_
*223 _195_
*224 _196_
*225 _197_
*226 _198_
*227 _199_
*228 _200_
*229 _201_
*230 _202_
*231 _203_
*232 _204_
*233 _205_
*234 _206_
*235 _207_
*236 _208_
*237 _209_
*238 _210_
*239 clknet_0_clk
*240 clknet_3_0__leaf_clk
*241 clknet_3_1__leaf_clk
*242 clknet_3_2__leaf_clk
*243 clknet_3_3__leaf_clk
*244 clknet_3_4__leaf_clk
*245 clknet_3_5__leaf_clk
*246 clknet_3_6__leaf_clk
*247 clknet_3_7__leaf_clk
*248 net1
*249 net10
*250 net11
*251 net12
*252 net13
*253 net14
*254 net15
*255 net16
*256 net17
*257 net18
*258 net19
*259 net2
*260 net20
*261 net21
*262 net22
*263 net23
*264 net24
*265 net25
*266 net26
*267 net27
*268 net28
*269 net29
*270 net3
*271 net30
*272 net31
*273 net32
*274 net33
*275 net34
*276 net35
*277 net36
*278 net37
*279 net38
*280 net39
*281 net4
*282 net40
*283 net41
*284 net42
*285 net43
*286 net44
*287 net45
*288 net46
*289 net47
*290 net48
*291 net49
*292 net5
*293 net50
*294 net51
*295 net52
*296 net53
*297 net54
*298 net55
*299 net56
*300 net57
*301 net58
*302 net59
*303 net6
*304 net60
*305 net61
*306 net62
*307 net63
*308 net64
*309 net65
*310 net66
*311 net67
*312 net68
*313 net69
*314 net7
*315 net70
*316 net71
*317 net72
*318 net73
*319 net8
*320 net9
*321 u_am0\.b_i\[0\]
*322 u_am0\.b_i\[1\]
*323 u_am0\.b_i\[2\]
*324 u_am0\.i_index\[0\]
*325 u_am0\.i_index\[1\]
*326 u_am0\.i_index\[2\]
*327 u_am0\.max\[0\]
*328 u_am0\.max\[1\]
*329 u_am0\.max\[2\]
*330 u_am1\.b_i\[0\]
*331 u_am1\.b_i\[1\]
*332 u_am1\.b_i\[2\]
*333 u_am1\.max\[0\]
*334 u_am1\.max\[1\]
*335 u_am1\.max\[2\]
*336 u_am2\.b_i\[0\]
*337 u_am2\.b_i\[1\]
*338 u_am2\.b_i\[2\]
*339 u_am2\.max\[0\]
*340 u_am2\.max\[1\]
*341 u_am2\.max\[2\]
*342 u_am3\.b_i\[0\]
*343 u_am3\.b_i\[1\]
*344 u_am3\.b_i\[2\]
*345 u_am3\.max\[0\]
*346 u_am3\.max\[1\]
*347 u_am3\.max\[2\]
*348 u_am4\.b_i\[0\]
*349 u_am4\.b_i\[1\]
*350 u_am4\.b_i\[2\]
*351 u_am4\.max\[0\]
*352 u_am4\.max\[1\]
*353 u_am4\.max\[2\]
*354 u_control\.o_start_sort
*355 u_sort\.bucket_counter\[0\]
*356 u_sort\.bucket_counter\[1\]
*357 u_sort\.bucket_counter\[2\]
*358 u_sort\.bucket_reg\[0\]\[0\]
*359 u_sort\.bucket_reg\[0\]\[1\]
*360 u_sort\.bucket_reg\[0\]\[2\]
*361 u_sort\.bucket_reg\[1\]\[0\]
*362 u_sort\.bucket_reg\[1\]\[1\]
*363 u_sort\.bucket_reg\[1\]\[2\]
*364 u_sort\.bucket_reg\[2\]\[0\]
*365 u_sort\.bucket_reg\[2\]\[1\]
*366 u_sort\.bucket_reg\[2\]\[2\]
*367 u_sort\.bucket_reg\[3\]\[0\]
*368 u_sort\.bucket_reg\[3\]\[1\]
*369 u_sort\.bucket_reg\[3\]\[2\]
*370 u_sort\.bucket_reg\[4\]\[0\]
*371 u_sort\.bucket_reg\[4\]\[1\]
*372 u_sort\.bucket_reg\[4\]\[2\]
*373 u_sort\.busy
*374 u_sort\.valid_reg\[0\]
*375 u_sort\.valid_reg\[1\]
*376 u_sort\.valid_reg\[2\]
*377 u_sort\.valid_reg\[3\]
*378 u_sort\.valid_reg\[4\]
*379 FILLER_0_0_109
*380 FILLER_0_0_113
*381 FILLER_0_0_125
*382 FILLER_0_0_137
*383 FILLER_0_0_141
*384 FILLER_0_0_15
*385 FILLER_0_0_153
*386 FILLER_0_0_165
*387 FILLER_0_0_169
*388 FILLER_0_0_181
*389 FILLER_0_0_189
*390 FILLER_0_0_27
*391 FILLER_0_0_29
*392 FILLER_0_0_3
*393 FILLER_0_0_41
*394 FILLER_0_0_53
*395 FILLER_0_0_57
*396 FILLER_0_0_69
*397 FILLER_0_0_81
*398 FILLER_0_0_85
*399 FILLER_0_0_97
*400 FILLER_0_10_127
*401 FILLER_0_10_139
*402 FILLER_0_10_141
*403 FILLER_0_10_147
*404 FILLER_0_10_175
*405 FILLER_0_10_26
*406 FILLER_0_10_29
*407 FILLER_0_10_85
*408 FILLER_0_10_89
*409 FILLER_0_11_101
*410 FILLER_0_11_110
*411 FILLER_0_11_119
*412 FILLER_0_11_13
*413 FILLER_0_11_130
*414 FILLER_0_11_134
*415 FILLER_0_11_166
*416 FILLER_0_11_169
*417 FILLER_0_11_177
*418 FILLER_0_11_3
*419 FILLER_0_11_36
*420 FILLER_0_11_48
*421 FILLER_0_11_53
*422 FILLER_0_11_74
*423 FILLER_0_11_9
*424 FILLER_0_11_95
*425 FILLER_0_12_101
*426 FILLER_0_12_113
*427 FILLER_0_12_137
*428 FILLER_0_12_14
*429 FILLER_0_12_147
*430 FILLER_0_12_159
*431 FILLER_0_12_171
*432 FILLER_0_12_175
*433 FILLER_0_12_185
*434 FILLER_0_12_27
*435 FILLER_0_12_39
*436 FILLER_0_12_6
*437 FILLER_0_12_65
*438 FILLER_0_12_85
*439 FILLER_0_12_91
*440 FILLER_0_13_10
*441 FILLER_0_13_111
*442 FILLER_0_13_113
*443 FILLER_0_13_121
*444 FILLER_0_13_127
*445 FILLER_0_13_133
*446 FILLER_0_13_138
*447 FILLER_0_13_150
*448 FILLER_0_13_158
*449 FILLER_0_13_162
*450 FILLER_0_13_169
*451 FILLER_0_13_21
*452 FILLER_0_13_51
*453 FILLER_0_13_55
*454 FILLER_0_13_57
*455 FILLER_0_13_6
*456 FILLER_0_13_63
*457 FILLER_0_13_73
*458 FILLER_0_13_81
*459 FILLER_0_14_107
*460 FILLER_0_14_118
*461 FILLER_0_14_130
*462 FILLER_0_14_141
*463 FILLER_0_14_153
*464 FILLER_0_14_161
*465 FILLER_0_14_173
*466 FILLER_0_14_185
*467 FILLER_0_14_193
*468 FILLER_0_14_26
*469 FILLER_0_14_29
*470 FILLER_0_14_47
*471 FILLER_0_14_55
*472 FILLER_0_14_77
*473 FILLER_0_14_83
*474 FILLER_0_14_85
*475 FILLER_0_14_91
*476 FILLER_0_14_95
*477 FILLER_0_15_102
*478 FILLER_0_15_108
*479 FILLER_0_15_147
*480 FILLER_0_15_15
*481 FILLER_0_15_169
*482 FILLER_0_15_181
*483 FILLER_0_15_19
*484 FILLER_0_15_191
*485 FILLER_0_15_195
*486 FILLER_0_15_28
*487 FILLER_0_15_3
*488 FILLER_0_15_40
*489 FILLER_0_15_68
*490 FILLER_0_15_72
*491 FILLER_0_16_110
*492 FILLER_0_16_118
*493 FILLER_0_16_123
*494 FILLER_0_16_139
*495 FILLER_0_16_151
*496 FILLER_0_16_170
*497 FILLER_0_16_21
*498 FILLER_0_16_27
*499 FILLER_0_16_29
*500 FILLER_0_16_37
*501 FILLER_0_16_6
*502 FILLER_0_16_68
*503 FILLER_0_16_82
*504 FILLER_0_16_85
*505 FILLER_0_16_89
*506 FILLER_0_17_10
*507 FILLER_0_17_105
*508 FILLER_0_17_111
*509 FILLER_0_17_123
*510 FILLER_0_17_162
*511 FILLER_0_17_178
*512 FILLER_0_17_184
*513 FILLER_0_17_43
*514 FILLER_0_17_51
*515 FILLER_0_17_6
*516 FILLER_0_17_77
*517 FILLER_0_17_81
*518 FILLER_0_18_112
*519 FILLER_0_18_124
*520 FILLER_0_18_138
*521 FILLER_0_18_141
*522 FILLER_0_18_145
*523 FILLER_0_18_153
*524 FILLER_0_18_160
*525 FILLER_0_18_168
*526 FILLER_0_18_192
*527 FILLER_0_18_23
*528 FILLER_0_18_38
*529 FILLER_0_18_44
*530 FILLER_0_18_82
*531 FILLER_0_18_85
*532 FILLER_0_18_97
*533 FILLER_0_19_113
*534 FILLER_0_19_121
*535 FILLER_0_19_127
*536 FILLER_0_19_149
*537 FILLER_0_19_157
*538 FILLER_0_19_165
*539 FILLER_0_19_169
*540 FILLER_0_19_181
*541 FILLER_0_19_3
*542 FILLER_0_19_45
*543 FILLER_0_19_53
*544 FILLER_0_19_66
*545 FILLER_0_19_75
*546 FILLER_0_19_79
*547 FILLER_0_19_83
*548 FILLER_0_1_105
*549 FILLER_0_1_111
*550 FILLER_0_1_113
*551 FILLER_0_1_125
*552 FILLER_0_1_137
*553 FILLER_0_1_149
*554 FILLER_0_1_15
*555 FILLER_0_1_161
*556 FILLER_0_1_167
*557 FILLER_0_1_169
*558 FILLER_0_1_181
*559 FILLER_0_1_193
*560 FILLER_0_1_27
*561 FILLER_0_1_3
*562 FILLER_0_1_39
*563 FILLER_0_1_51
*564 FILLER_0_1_55
*565 FILLER_0_1_57
*566 FILLER_0_1_69
*567 FILLER_0_1_81
*568 FILLER_0_1_93
*569 FILLER_0_20_100
*570 FILLER_0_20_121
*571 FILLER_0_20_133
*572 FILLER_0_20_139
*573 FILLER_0_20_141
*574 FILLER_0_20_153
*575 FILLER_0_20_165
*576 FILLER_0_20_18
*577 FILLER_0_20_192
*578 FILLER_0_20_27
*579 FILLER_0_20_39
*580 FILLER_0_20_47
*581 FILLER_0_20_6
*582 FILLER_0_20_73
*583 FILLER_0_20_85
*584 FILLER_0_20_91
*585 FILLER_0_21_10
*586 FILLER_0_21_113
*587 FILLER_0_21_121
*588 FILLER_0_21_139
*589 FILLER_0_21_147
*590 FILLER_0_21_158
*591 FILLER_0_21_16
*592 FILLER_0_21_166
*593 FILLER_0_21_169
*594 FILLER_0_21_181
*595 FILLER_0_21_193
*596 FILLER_0_21_25
*597 FILLER_0_21_46
*598 FILLER_0_21_54
*599 FILLER_0_21_57
*600 FILLER_0_21_6
*601 FILLER_0_21_62
*602 FILLER_0_21_74
*603 FILLER_0_21_86
*604 FILLER_0_22_108
*605 FILLER_0_22_116
*606 FILLER_0_22_128
*607 FILLER_0_22_133
*608 FILLER_0_22_139
*609 FILLER_0_22_141
*610 FILLER_0_22_190
*611 FILLER_0_22_23
*612 FILLER_0_22_27
*613 FILLER_0_22_29
*614 FILLER_0_22_50
*615 FILLER_0_22_54
*616 FILLER_0_22_75
*617 FILLER_0_22_81
*618 FILLER_0_22_85
*619 FILLER_0_22_97
*620 FILLER_0_23_109
*621 FILLER_0_23_113
*622 FILLER_0_23_125
*623 FILLER_0_23_129
*624 FILLER_0_23_133
*625 FILLER_0_23_144
*626 FILLER_0_23_163
*627 FILLER_0_23_167
*628 FILLER_0_23_169
*629 FILLER_0_23_27
*630 FILLER_0_23_3
*631 FILLER_0_23_54
*632 FILLER_0_23_66
*633 FILLER_0_23_9
*634 FILLER_0_23_97
*635 FILLER_0_24_104
*636 FILLER_0_24_110
*637 FILLER_0_24_118
*638 FILLER_0_24_126
*639 FILLER_0_24_144
*640 FILLER_0_24_176
*641 FILLER_0_24_191
*642 FILLER_0_24_195
*643 FILLER_0_24_25
*644 FILLER_0_24_29
*645 FILLER_0_24_41
*646 FILLER_0_24_53
*647 FILLER_0_24_6
*648 FILLER_0_24_71
*649 FILLER_0_24_83
*650 FILLER_0_24_85
*651 FILLER_0_24_93
*652 FILLER_0_25_113
*653 FILLER_0_25_122
*654 FILLER_0_25_134
*655 FILLER_0_25_146
*656 FILLER_0_25_158
*657 FILLER_0_25_166
*658 FILLER_0_25_169
*659 FILLER_0_25_186
*660 FILLER_0_25_19
*661 FILLER_0_25_40
*662 FILLER_0_25_52
*663 FILLER_0_25_6
*664 FILLER_0_25_77
*665 FILLER_0_25_83
*666 FILLER_0_26_107
*667 FILLER_0_26_123
*668 FILLER_0_26_141
*669 FILLER_0_26_153
*670 FILLER_0_26_165
*671 FILLER_0_26_23
*672 FILLER_0_26_27
*673 FILLER_0_26_49
*674 FILLER_0_26_61
*675 FILLER_0_26_82
*676 FILLER_0_26_88
*677 FILLER_0_27_10
*678 FILLER_0_27_108
*679 FILLER_0_27_113
*680 FILLER_0_27_125
*681 FILLER_0_27_149
*682 FILLER_0_27_161
*683 FILLER_0_27_167
*684 FILLER_0_27_169
*685 FILLER_0_27_18
*686 FILLER_0_27_181
*687 FILLER_0_27_187
*688 FILLER_0_27_27
*689 FILLER_0_27_3
*690 FILLER_0_27_35
*691 FILLER_0_27_39
*692 FILLER_0_27_48
*693 FILLER_0_27_57
*694 FILLER_0_27_68
*695 FILLER_0_27_95
*696 FILLER_0_28_134
*697 FILLER_0_28_141
*698 FILLER_0_28_153
*699 FILLER_0_28_165
*700 FILLER_0_28_173
*701 FILLER_0_28_18
*702 FILLER_0_28_26
*703 FILLER_0_28_29
*704 FILLER_0_28_35
*705 FILLER_0_28_45
*706 FILLER_0_28_6
*707 FILLER_0_28_73
*708 FILLER_0_28_85
*709 FILLER_0_29_111
*710 FILLER_0_29_129
*711 FILLER_0_29_141
*712 FILLER_0_29_153
*713 FILLER_0_29_165
*714 FILLER_0_29_169
*715 FILLER_0_29_181
*716 FILLER_0_29_189
*717 FILLER_0_29_23
*718 FILLER_0_29_32
*719 FILLER_0_29_68
*720 FILLER_0_29_76
*721 FILLER_0_29_98
*722 FILLER_0_2_109
*723 FILLER_0_2_121
*724 FILLER_0_2_133
*725 FILLER_0_2_139
*726 FILLER_0_2_141
*727 FILLER_0_2_153
*728 FILLER_0_2_165
*729 FILLER_0_2_177
*730 FILLER_0_2_189
*731 FILLER_0_2_19
*732 FILLER_0_2_195
*733 FILLER_0_2_27
*734 FILLER_0_2_29
*735 FILLER_0_2_41
*736 FILLER_0_2_45
*737 FILLER_0_2_69
*738 FILLER_0_2_81
*739 FILLER_0_2_85
*740 FILLER_0_2_97
*741 FILLER_0_30_109
*742 FILLER_0_30_115
*743 FILLER_0_30_119
*744 FILLER_0_30_131
*745 FILLER_0_30_139
*746 FILLER_0_30_141
*747 FILLER_0_30_153
*748 FILLER_0_30_165
*749 FILLER_0_30_177
*750 FILLER_0_30_189
*751 FILLER_0_30_195
*752 FILLER_0_30_44
*753 FILLER_0_30_56
*754 FILLER_0_30_6
*755 FILLER_0_30_68
*756 FILLER_0_30_80
*757 FILLER_0_30_85
*758 FILLER_0_30_97
*759 FILLER_0_31_105
*760 FILLER_0_31_111
*761 FILLER_0_31_113
*762 FILLER_0_31_125
*763 FILLER_0_31_13
*764 FILLER_0_31_137
*765 FILLER_0_31_149
*766 FILLER_0_31_161
*767 FILLER_0_31_167
*768 FILLER_0_31_169
*769 FILLER_0_31_181
*770 FILLER_0_31_193
*771 FILLER_0_31_3
*772 FILLER_0_31_46
*773 FILLER_0_31_54
*774 FILLER_0_31_57
*775 FILLER_0_31_69
*776 FILLER_0_31_81
*777 FILLER_0_31_93
*778 FILLER_0_32_109
*779 FILLER_0_32_113
*780 FILLER_0_32_125
*781 FILLER_0_32_137
*782 FILLER_0_32_141
*783 FILLER_0_32_15
*784 FILLER_0_32_153
*785 FILLER_0_32_165
*786 FILLER_0_32_169
*787 FILLER_0_32_181
*788 FILLER_0_32_189
*789 FILLER_0_32_22
*790 FILLER_0_32_29
*791 FILLER_0_32_41
*792 FILLER_0_32_53
*793 FILLER_0_32_57
*794 FILLER_0_32_69
*795 FILLER_0_32_81
*796 FILLER_0_32_85
*797 FILLER_0_32_9
*798 FILLER_0_32_97
*799 FILLER_0_3_102
*800 FILLER_0_3_110
*801 FILLER_0_3_121
*802 FILLER_0_3_133
*803 FILLER_0_3_145
*804 FILLER_0_3_157
*805 FILLER_0_3_165
*806 FILLER_0_3_169
*807 FILLER_0_3_181
*808 FILLER_0_3_193
*809 FILLER_0_3_23
*810 FILLER_0_3_35
*811 FILLER_0_3_47
*812 FILLER_0_3_55
*813 FILLER_0_3_57
*814 FILLER_0_3_61
*815 FILLER_0_4_121
*816 FILLER_0_4_133
*817 FILLER_0_4_139
*818 FILLER_0_4_141
*819 FILLER_0_4_153
*820 FILLER_0_4_165
*821 FILLER_0_4_177
*822 FILLER_0_4_189
*823 FILLER_0_4_195
*824 FILLER_0_4_20
*825 FILLER_0_4_29
*826 FILLER_0_4_3
*827 FILLER_0_4_37
*828 FILLER_0_4_46
*829 FILLER_0_4_58
*830 FILLER_0_4_66
*831 FILLER_0_4_81
*832 FILLER_0_4_85
*833 FILLER_0_4_97
*834 FILLER_0_5_10
*835 FILLER_0_5_111
*836 FILLER_0_5_113
*837 FILLER_0_5_119
*838 FILLER_0_5_140
*839 FILLER_0_5_152
*840 FILLER_0_5_164
*841 FILLER_0_5_169
*842 FILLER_0_5_181
*843 FILLER_0_5_189
*844 FILLER_0_5_40
*845 FILLER_0_5_49
*846 FILLER_0_5_55
*847 FILLER_0_5_57
*848 FILLER_0_5_6
*849 FILLER_0_5_69
*850 FILLER_0_5_89
*851 FILLER_0_6_109
*852 FILLER_0_6_121
*853 FILLER_0_6_133
*854 FILLER_0_6_139
*855 FILLER_0_6_141
*856 FILLER_0_6_153
*857 FILLER_0_6_165
*858 FILLER_0_6_177
*859 FILLER_0_6_189
*860 FILLER_0_6_195
*861 FILLER_0_6_22
*862 FILLER_0_6_27
*863 FILLER_0_6_6
*864 FILLER_0_6_69
*865 FILLER_0_6_82
*866 FILLER_0_6_85
*867 FILLER_0_6_97
*868 FILLER_0_7_10
*869 FILLER_0_7_106
*870 FILLER_0_7_113
*871 FILLER_0_7_125
*872 FILLER_0_7_131
*873 FILLER_0_7_143
*874 FILLER_0_7_155
*875 FILLER_0_7_167
*876 FILLER_0_7_169
*877 FILLER_0_7_181
*878 FILLER_0_7_193
*879 FILLER_0_7_27
*880 FILLER_0_7_39
*881 FILLER_0_7_48
*882 FILLER_0_7_57
*883 FILLER_0_7_6
*884 FILLER_0_7_63
*885 FILLER_0_7_95
*886 FILLER_0_8_138
*887 FILLER_0_8_168
*888 FILLER_0_8_192
*889 FILLER_0_8_26
*890 FILLER_0_8_29
*891 FILLER_0_8_68
*892 FILLER_0_8_80
*893 FILLER_0_9_122
*894 FILLER_0_9_128
*895 FILLER_0_9_157
*896 FILLER_0_9_165
*897 FILLER_0_9_169
*898 FILLER_0_9_3
*899 FILLER_0_9_54
*900 FILLER_0_9_57
*901 FILLER_0_9_65
*902 FILLER_0_9_7
*903 FILLER_0_9_85
*904 FILLER_0_9_91
*905 PHY_0
*906 PHY_1
*907 PHY_10
*908 PHY_11
*909 PHY_12
*910 PHY_13
*911 PHY_14
*912 PHY_15
*913 PHY_16
*914 PHY_17
*915 PHY_18
*916 PHY_19
*917 PHY_2
*918 PHY_20
*919 PHY_21
*920 PHY_22
*921 PHY_23
*922 PHY_24
*923 PHY_25
*924 PHY_26
*925 PHY_27
*926 PHY_28
*927 PHY_29
*928 PHY_3
*929 PHY_30
*930 PHY_31
*931 PHY_32
*932 PHY_33
*933 PHY_34
*934 PHY_35
*935 PHY_36
*936 PHY_37
*937 PHY_38
*938 PHY_39
*939 PHY_4
*940 PHY_40
*941 PHY_41
*942 PHY_42
*943 PHY_43
*944 PHY_44
*945 PHY_45
*946 PHY_46
*947 PHY_47
*948 PHY_48
*949 PHY_49
*950 PHY_5
*951 PHY_50
*952 PHY_51
*953 PHY_52
*954 PHY_53
*955 PHY_54
*956 PHY_55
*957 PHY_56
*958 PHY_57
*959 PHY_58
*960 PHY_59
*961 PHY_6
*962 PHY_60
*963 PHY_61
*964 PHY_62
*965 PHY_63
*966 PHY_64
*967 PHY_65
*968 PHY_7
*969 PHY_8
*970 PHY_9
*971 TAP_100
*972 TAP_101
*973 TAP_102
*974 TAP_103
*975 TAP_104
*976 TAP_105
*977 TAP_106
*978 TAP_107
*979 TAP_108
*980 TAP_109
*981 TAP_110
*982 TAP_111
*983 TAP_112
*984 TAP_113
*985 TAP_114
*986 TAP_115
*987 TAP_116
*988 TAP_117
*989 TAP_118
*990 TAP_119
*991 TAP_120
*992 TAP_121
*993 TAP_122
*994 TAP_123
*995 TAP_124
*996 TAP_125
*997 TAP_126
*998 TAP_127
*999 TAP_128
*1000 TAP_129
*1001 TAP_130
*1002 TAP_131
*1003 TAP_132
*1004 TAP_133
*1005 TAP_134
*1006 TAP_135
*1007 TAP_136
*1008 TAP_137
*1009 TAP_138
*1010 TAP_139
*1011 TAP_140
*1012 TAP_141
*1013 TAP_142
*1014 TAP_143
*1015 TAP_144
*1016 TAP_145
*1017 TAP_146
*1018 TAP_147
*1019 TAP_148
*1020 TAP_149
*1021 TAP_150
*1022 TAP_151
*1023 TAP_152
*1024 TAP_153
*1025 TAP_154
*1026 TAP_155
*1027 TAP_156
*1028 TAP_157
*1029 TAP_158
*1030 TAP_159
*1031 TAP_160
*1032 TAP_161
*1033 TAP_162
*1034 TAP_163
*1035 TAP_164
*1036 TAP_165
*1037 TAP_166
*1038 TAP_167
*1039 TAP_168
*1040 TAP_169
*1041 TAP_170
*1042 TAP_66
*1043 TAP_67
*1044 TAP_68
*1045 TAP_69
*1046 TAP_70
*1047 TAP_71
*1048 TAP_72
*1049 TAP_73
*1050 TAP_74
*1051 TAP_75
*1052 TAP_76
*1053 TAP_77
*1054 TAP_78
*1055 TAP_79
*1056 TAP_80
*1057 TAP_81
*1058 TAP_82
*1059 TAP_83
*1060 TAP_84
*1061 TAP_85
*1062 TAP_86
*1063 TAP_87
*1064 TAP_88
*1065 TAP_89
*1066 TAP_90
*1067 TAP_91
*1068 TAP_92
*1069 TAP_93
*1070 TAP_94
*1071 TAP_95
*1072 TAP_96
*1073 TAP_97
*1074 TAP_98
*1075 TAP_99
*1076 _211_
*1077 _212_
*1078 _213_
*1079 _214_
*1080 _215_
*1081 _216_
*1082 _217_
*1083 _218_
*1084 _219_
*1085 _220_
*1086 _221_
*1087 _222_
*1088 _223_
*1089 _224_
*1090 _225_
*1091 _226_
*1092 _227_
*1093 _228_
*1094 _229_
*1095 _230_
*1096 _231_
*1097 _232_
*1098 _233_
*1099 _234_
*1100 _235_
*1101 _236_
*1102 _237_
*1103 _238_
*1104 _239_
*1105 _240_
*1106 _241_
*1107 _242_
*1108 _243_
*1109 _244_
*1110 _245_
*1111 _246_
*1112 _247_
*1113 _248_
*1114 _249_
*1115 _250_
*1116 _251_
*1117 _252_
*1118 _253_
*1119 _254_
*1120 _255_
*1121 _256_
*1122 _257_
*1123 _258_
*1124 _259_
*1125 _260_
*1126 _261_
*1127 _262_
*1128 _263_
*1129 _264_
*1130 _265_
*1131 _266_
*1132 _267_
*1133 _268_
*1134 _269_
*1135 _270_
*1136 _271_
*1137 _272_
*1138 _273_
*1139 _274_
*1140 _275_
*1141 _276_
*1142 _277_
*1143 _278_
*1144 _279_
*1145 _280_
*1146 _281_
*1147 _282_
*1148 _283_
*1149 _284_
*1150 _285_
*1151 _286_
*1152 _287_
*1153 _288_
*1154 _289_
*1155 _290_
*1156 _291_
*1157 _292_
*1158 _293_
*1159 _294_
*1160 _295_
*1161 _296_
*1162 _297_
*1163 _298_
*1164 _299_
*1165 _300_
*1166 _301_
*1167 _302_
*1168 _303_
*1169 _304_
*1170 _305_
*1171 _306_
*1172 _307_
*1173 _308_
*1174 _309_
*1175 _310_
*1176 _311_
*1177 _312_
*1178 _313_
*1179 _314_
*1180 _315_
*1181 _316_
*1182 _317_
*1183 _318_
*1184 _319_
*1185 _320_
*1186 _321_
*1187 _322_
*1188 _323_
*1189 _324_
*1190 _325_
*1191 _326_
*1192 _327_
*1193 _328_
*1194 _329_
*1195 _330_
*1196 _331_
*1197 _332_
*1198 _333_
*1199 _334_
*1200 _335_
*1201 _336_
*1202 _337_
*1203 _338_
*1204 _339_
*1205 _340_
*1206 _341_
*1207 _342_
*1208 _343_
*1209 _344_
*1210 _345_
*1211 _346_
*1212 _347_
*1213 _348_
*1214 _349_
*1215 _350_
*1216 _351_
*1217 _352_
*1218 _353_
*1219 _354_
*1220 _355_
*1221 _356_
*1222 _357_
*1223 _358_
*1224 _359_
*1225 _360_
*1226 _361_
*1227 _362_
*1228 _363_
*1229 _364_
*1230 _365_
*1231 _366_
*1232 _367_
*1233 _368_
*1234 _369_
*1235 _370_
*1236 _371_
*1237 _372_
*1238 _373_
*1239 _374_
*1240 _375_
*1241 _376_
*1242 _377_
*1243 _378_
*1244 _379_
*1245 _380_
*1246 _381_
*1247 _382_
*1248 _383_
*1249 _384_
*1250 _385_
*1251 _386_
*1252 _387_
*1253 _388_
*1254 _389_
*1255 _390_
*1256 _391_
*1257 _392_
*1258 _393_
*1259 _394_
*1260 _395_
*1261 _396_
*1262 _397_
*1263 _398_
*1264 _399_
*1265 _400_
*1266 _401_
*1267 _402_
*1268 _403_
*1269 _404_
*1270 _405_
*1271 _406_
*1272 _407_
*1273 _408_
*1274 _409_
*1275 _410_
*1276 _411_
*1277 _412_
*1278 _413_
*1279 _414_
*1280 _415_
*1281 _416_
*1282 _417_
*1283 _418_
*1284 _419_
*1285 _420_
*1286 _421_
*1287 _422_
*1288 _423_
*1289 _424_
*1290 _425_
*1291 _426_
*1292 _427_
*1293 _428_
*1294 _429_
*1295 _430_
*1296 _431_
*1297 _432_
*1298 _433_
*1299 _434_
*1300 _435_
*1301 _436_
*1302 _437_
*1303 _438_
*1304 _439_
*1305 _440_
*1306 _441_
*1307 _442_
*1308 _443_
*1309 _444_
*1310 _445_
*1311 _446_
*1312 _447_
*1313 _448_
*1314 _449_
*1315 _450_
*1316 _451_
*1317 _452_
*1318 _453_
*1319 _454_
*1320 _455_
*1321 _456_
*1322 _457_
*1323 _458_
*1324 _459_
*1325 _460_
*1326 _461_
*1327 _462_
*1328 _463_
*1329 _464_
*1330 _465_
*1331 _466_
*1332 _467_
*1333 _468_
*1334 _469_
*1335 _470_
*1336 _471_
*1337 _472_
*1338 _473_
*1339 _474_
*1340 _475_
*1341 _476_
*1342 _477_
*1343 _478_
*1344 _479_
*1345 _480_
*1346 _481_
*1347 _482_
*1348 _483_
*1349 _484_
*1350 _485_
*1351 _486_
*1352 clkbuf_0_clk
*1353 clkbuf_3_0__f_clk
*1354 clkbuf_3_1__f_clk
*1355 clkbuf_3_2__f_clk
*1356 clkbuf_3_3__f_clk
*1357 clkbuf_3_4__f_clk
*1358 clkbuf_3_5__f_clk
*1359 clkbuf_3_6__f_clk
*1360 clkbuf_3_7__f_clk
*1361 hold1
*1362 hold10
*1363 hold11
*1364 hold12
*1365 hold13
*1366 hold14
*1367 hold15
*1368 hold16
*1369 hold17
*1370 hold18
*1371 hold19
*1372 hold2
*1373 hold20
*1374 hold21
*1375 hold22
*1376 hold23
*1377 hold24
*1378 hold25
*1379 hold26
*1380 hold27
*1381 hold28
*1382 hold29
*1383 hold3
*1384 hold30
*1385 hold31
*1386 hold32
*1387 hold33
*1388 hold34
*1389 hold35
*1390 hold36
*1391 hold37
*1392 hold38
*1393 hold39
*1394 hold4
*1395 hold40
*1396 hold41
*1397 hold42
*1398 hold43
*1399 hold44
*1400 hold45
*1401 hold46
*1402 hold47
*1403 hold5
*1404 hold6
*1405 hold7
*1406 hold8
*1407 hold9
*1408 input1
*1409 input10
*1410 input11
*1411 input12
*1412 input13
*1413 input14
*1414 input15
*1415 input16
*1416 input17
*1417 input2
*1418 input3
*1419 input4
*1420 input5
*1421 input6
*1422 input7
*1423 input8
*1424 input9
*1425 max_cap25
*1426 output18
*1427 output19
*1428 output20
*1429 output21
*1430 output22
*1431 output23
*1432 output24
*1433 wire26

*PORTS
clk I
i_valid I
i_value0[0] I
i_value0[1] I
i_value0[2] I
i_value1[0] I
i_value1[1] I
i_value1[2] I
i_value2[0] I
i_value2[1] I
i_value2[2] I
i_value3[0] I
i_value3[1] I
i_value3[2] I
i_value4[0] I
i_value4[1] I
i_value4[2] I
o_bucket[0] O
o_bucket[1] O
o_bucket[2] O
o_index[0] O
o_index[1] O
o_index[2] O
o_valid O
rst_n I

*D_NET *3 0.0125107
*CONN
*P clk I
*I *1352:A I *D sky130_fd_sc_hd__clkbuf_16
*CAP
1 clk 0.00625054
2 *1352:A 0.00625054
3 *1352:A *1416:A 0
4 *1352:A *239:18 0
5 *1352:A *364:8 9.59532e-06
*RES
1 clk *1352:A 38.5165 
*END

*D_NET *4 0.000923406
*CONN
*P i_valid I
*I *1408:A I *D sky130_fd_sc_hd__clkbuf_1
*CAP
1 i_valid 0.000461703
2 *1408:A 0.000461703
3 *1408:A *1291:D 0
4 *1408:A *1416:A 0
5 *1408:A *1417:A 0
*RES
1 i_valid *1408:A 24.4947 
*END

*D_NET *5 0.000724954
*CONN
*P i_value0[0] I
*I *1417:A I *D sky130_fd_sc_hd__clkbuf_1
*CAP
1 i_value0[0] 0.000362477
2 *1417:A 0.000362477
3 *1408:A *1417:A 0
*RES
1 i_value0[0] *1417:A 19.0371 
*END

*D_NET *6 0.000485564
*CONN
*P i_value0[1] I
*I *1418:A I *D sky130_fd_sc_hd__buf_1
*CAP
1 i_value0[1] 0.000242782
2 *1418:A 0.000242782
*RES
1 i_value0[1] *1418:A 19.9411 
*END

*D_NET *7 0.000666657
*CONN
*P i_value0[2] I
*I *1419:A I *D sky130_fd_sc_hd__buf_1
*CAP
1 i_value0[2] 0.000333328
2 *1419:A 0.000333328
3 *1419:A *1294:CLK 0
4 *1419:A *1420:A 0
5 *1419:A *281:14 0
*RES
1 i_value0[2] *1419:A 21.7625 
*END

*D_NET *8 0.000644435
*CONN
*P i_value1[0] I
*I *1420:A I *D sky130_fd_sc_hd__clkbuf_1
*CAP
1 i_value1[0] 0.000322217
2 *1420:A 0.000322217
3 *1420:A *1421:A 0
4 *1419:A *1420:A 0
*RES
1 i_value1[0] *1420:A 21.7625 
*END

*D_NET *9 0.000478319
*CONN
*P i_value1[1] I
*I *1421:A I *D sky130_fd_sc_hd__buf_1
*CAP
1 i_value1[1] 0.000239159
2 *1421:A 0.000239159
3 *1420:A *1421:A 0
*RES
1 i_value1[1] *1421:A 19.9411 
*END

*D_NET *10 0.000697062
*CONN
*P i_value1[2] I
*I *1422:A I *D sky130_fd_sc_hd__buf_1
*CAP
1 i_value1[2] 0.000348531
2 *1422:A 0.000348531
3 *1422:A *1423:A 0
*RES
1 i_value1[2] *1422:A 19.0371 
*END

*D_NET *11 0.000481485
*CONN
*P i_value2[0] I
*I *1423:A I *D sky130_fd_sc_hd__clkbuf_1
*CAP
1 i_value2[0] 0.000240743
2 *1423:A 0.000240743
3 *1423:A *1424:A 0
4 *1422:A *1423:A 0
*RES
1 i_value2[0] *1423:A 19.9411 
*END

*D_NET *12 0.000647843
*CONN
*P i_value2[1] I
*I *1424:A I *D sky130_fd_sc_hd__buf_1
*CAP
1 i_value2[1] 0.000323921
2 *1424:A 0.000323921
3 *1424:A *1409:A 0
4 *1423:A *1424:A 0
*RES
1 i_value2[1] *1424:A 21.7625 
*END

*D_NET *13 0.000478319
*CONN
*P i_value2[2] I
*I *1409:A I *D sky130_fd_sc_hd__buf_1
*CAP
1 i_value2[2] 0.000239159
2 *1409:A 0.000239159
3 *1424:A *1409:A 0
*RES
1 i_value2[2] *1409:A 19.9411 
*END

*D_NET *14 0.00067002
*CONN
*P i_value3[0] I
*I *1410:A I *D sky130_fd_sc_hd__clkbuf_1
*CAP
1 i_value3[0] 0.00033501
2 *1410:A 0.00033501
3 *1410:A *1411:A 0
*RES
1 i_value3[0] *1410:A 19.5377 
*END

*D_NET *15 0.000478315
*CONN
*P i_value3[1] I
*I *1411:A I *D sky130_fd_sc_hd__buf_1
*CAP
1 i_value3[1] 0.000239158
2 *1411:A 0.000239158
3 *1411:A *1412:A 0
4 *1410:A *1411:A 0
*RES
1 i_value3[1] *1411:A 19.9411 
*END

*D_NET *16 0.00067567
*CONN
*P i_value3[2] I
*I *1412:A I *D sky130_fd_sc_hd__buf_1
*CAP
1 i_value3[2] 0.000337835
2 *1412:A 0.000337835
3 *1412:A *242:85 0
4 *1411:A *1412:A 0
*RES
1 i_value3[2] *1412:A 21.7625 
*END

*D_NET *17 0.000680981
*CONN
*P i_value4[0] I
*I *1413:A I *D sky130_fd_sc_hd__clkbuf_1
*CAP
1 i_value4[0] 0.000333876
2 *1413:A 0.000333876
3 *1413:A *1313:CLK 1.32293e-05
*RES
1 i_value4[0] *1413:A 21.7625 
*END

*D_NET *18 0.000787124
*CONN
*P i_value4[1] I
*I *1414:A I *D sky130_fd_sc_hd__buf_1
*CAP
1 i_value4[1] 0.000299269
2 *1414:A 0.000299269
3 *1414:A *1415:A 0.000188586
4 *1414:A *255:12 0
*RES
1 i_value4[1] *1414:A 21.7625 
*END

*D_NET *19 0.0010633
*CONN
*P i_value4[2] I
*I *1415:A I *D sky130_fd_sc_hd__buf_1
*CAP
1 i_value4[2] 0.000408784
2 *1415:A 0.000408784
3 *1415:A *254:10 5.71472e-05
4 *1414:A *1415:A 0.000188586
*RES
1 i_value4[2] *1415:A 23.6917 
*END

*D_NET *20 0.00123157
*CONN
*P o_bucket[0] O
*I *1426:X O *D sky130_fd_sc_hd__clkbuf_4
*CAP
1 o_bucket[0] 0.000530743
2 *1426:X 0.000530743
3 o_bucket[0] *1241:A0 0
4 o_bucket[0] *1426:A 0.000116545
5 o_bucket[0] *257:10 5.35423e-05
*RES
1 *1426:X o_bucket[0] 24.3384 
*END

*D_NET *21 0.000667098
*CONN
*P o_bucket[1] O
*I *1427:X O *D sky130_fd_sc_hd__buf_2
*CAP
1 o_bucket[1] 0.00032205
2 *1427:X 0.00032205
3 o_bucket[1] *1427:A 2.29985e-05
*RES
1 *1427:X o_bucket[1] 18.6426 
*END

*D_NET *22 0.000803674
*CONN
*P o_bucket[2] O
*I *1428:X O *D sky130_fd_sc_hd__clkbuf_4
*CAP
1 o_bucket[2] 0.000353644
2 *1428:X 0.000353644
3 o_bucket[2] *1428:A 1.74503e-05
4 o_bucket[2] *1432:A 7.89362e-05
*RES
1 *1428:X o_bucket[2] 19.5533 
*END

*D_NET *23 0.000951216
*CONN
*P o_index[0] O
*I *1429:X O *D sky130_fd_sc_hd__clkbuf_4
*CAP
1 o_index[0] 0.000475608
2 *1429:X 0.000475608
*RES
1 *1429:X o_index[0] 22.3735 
*END

*D_NET *24 0.000700326
*CONN
*P o_index[1] O
*I *1430:X O *D sky130_fd_sc_hd__buf_2
*CAP
1 o_index[1] 0.000319812
2 *1430:X 0.000319812
3 o_index[1] *1429:A 6.07024e-05
*RES
1 *1430:X o_index[1] 19.5533 
*END

*D_NET *25 0.0012537
*CONN
*P o_index[2] O
*I *1431:X O *D sky130_fd_sc_hd__clkbuf_4
*CAP
1 o_index[2] 0.000548554
2 *1431:X 0.000548554
3 o_index[2] *1252:A0 3.91668e-05
4 o_index[2] *256:357 0.000117421
*RES
1 *1431:X o_index[2] 20.1299 
*END

*D_NET *26 0.00100426
*CONN
*P o_valid O
*I *1432:X O *D sky130_fd_sc_hd__clkbuf_4
*CAP
1 o_valid 0.000502129
2 *1432:X 0.000502129
*RES
1 *1432:X o_valid 22.5891 
*END

*D_NET *27 0.000659607
*CONN
*P rst_n I
*I *1416:A I *D sky130_fd_sc_hd__buf_12
*CAP
1 rst_n 0.000329803
2 *1416:A 0.000329803
3 *1352:A *1416:A 0
4 *1408:A *1416:A 0
*RES
1 rst_n *1416:A 21.7625 
*END

*D_NET *28 0.00187982
*CONN
*I *1287:D I *D sky130_fd_sc_hd__dfrtp_1
*I *1286:A I *D sky130_fd_sc_hd__nor2_1
*I *1079:X O *D sky130_fd_sc_hd__clkbuf_1
*CAP
1 *1287:D 0.000266621
2 *1286:A 0.000302271
3 *1079:X 0
4 *28:4 0.000568892
5 *1286:A *1286:B 0.000349377
6 *1286:A *1351:D 9.77118e-05
7 *1286:A *240:90 5.45307e-05
8 *1287:D *1078:A 0.000141289
9 *1287:D *94:25 6.93704e-06
10 *1287:D *240:90 9.21933e-05
*RES
1 *1079:X *28:4 9.3 
2 *28:4 *1286:A 24.8 
3 *28:4 *1287:D 13.0366 
*END

*D_NET *29 0.000547285
*CONN
*I *1343:D I *D sky130_fd_sc_hd__dfrtp_1
*I *1125:Y O *D sky130_fd_sc_hd__o21ai_1
*CAP
1 *1343:D 0.000210664
2 *1125:Y 0.000210664
3 *1343:D *1125:A2 0.000100165
4 *1343:D *1343:CLK 1.51638e-05
5 *1343:D *116:29 1.06289e-05
*RES
1 *1125:Y *1343:D 30.5866 
*END

*D_NET *30 0.00917056
*CONN
*I *1336:D I *D sky130_fd_sc_hd__dfrtp_1
*I *1245:S I *D sky130_fd_sc_hd__mux2_1
*I *1243:S I *D sky130_fd_sc_hd__mux2_1
*I *1241:S I *D sky130_fd_sc_hd__mux2_1
*I *1254:S I *D sky130_fd_sc_hd__mux2_1
*I *1252:S I *D sky130_fd_sc_hd__mux2_1
*I *1249:S I *D sky130_fd_sc_hd__mux2_1
*I *1113:X O *D sky130_fd_sc_hd__buf_2
*CAP
1 *1336:D 0.000264089
2 *1245:S 0.000213572
3 *1243:S 0.000221898
4 *1241:S 0.000226898
5 *1254:S 5.6547e-05
6 *1252:S 0.000179836
7 *1249:S 1.90677e-05
8 *1113:X 0.000128485
9 *30:71 0.000551692
10 *30:58 0.000980276
11 *30:20 0.000541512
12 *30:12 0.000792303
13 *30:10 0.000809774
14 *30:8 0.00100256
15 *1241:S *1241:A0 3.32737e-05
16 *1243:S *1243:A0 5.03141e-05
17 *1243:S *1243:A1 5.52302e-05
18 *1243:S *1244:A 0.000140933
19 *1245:S *1245:A1 7.48091e-05
20 *1249:S *1249:A0 5.49489e-05
21 *1252:S *1249:A0 0.000137583
22 *1252:S *1252:A1 5.52238e-05
23 *1254:S *1254:A0 2.38501e-05
24 *1254:S *1254:A1 9.84729e-05
25 *1336:D *1245:A0 0.000144623
26 *1336:D *1246:A 9.91086e-05
27 *1336:D *1336:CLK 0.000105679
28 *1336:D *1336:RESET_B 7.50159e-05
29 *1336:D *247:68 5.17826e-05
30 *1336:D *256:404 4.47937e-05
31 *30:10 *1111:A 0
32 *30:10 *1242:A 8.15465e-05
33 *30:10 *1333:D 0.000128161
34 *30:10 *97:14 0.000300703
35 *30:10 *256:353 0
36 *30:10 *256:355 0
37 *30:12 *1111:A 0
38 *30:12 *245:52 5.69498e-05
39 *30:12 *256:355 0
40 *30:20 *1253:A 9.17732e-05
41 *30:20 *1338:D 0.000129868
42 *30:20 *216:18 0
43 *30:20 *245:34 6.71688e-05
44 *30:20 *245:52 0.000148757
45 *30:58 *1244:A 9.91086e-05
46 *30:58 *97:14 0.000256835
47 *30:58 *247:68 2.22228e-05
48 *30:58 *256:335 0.00018692
49 *30:58 *256:339 0.000111414
50 *30:58 *256:394 0.000102281
51 *30:58 *256:404 3.52562e-05
52 *30:58 *355:10 0
53 *30:71 *247:68 5.38627e-05
54 *30:71 *256:404 6.35798e-05
*RES
1 *1113:X *30:8 15.1571 
2 *30:8 *30:10 5.89286 
3 *30:10 *30:12 7.10714 
4 *30:12 *30:20 12.875 
5 *30:20 *1249:S 9.83571 
6 *30:20 *1252:S 13.1571 
7 *30:12 *1254:S 15.1571 
8 *30:10 *1241:S 17.6214 
9 *30:8 *30:58 15.9107 
10 *30:58 *1243:S 18.3536 
11 *30:58 *30:71 2.25 
12 *30:71 *1245:S 16.7107 
13 *30:71 *1336:D 21.5143 
*END

*D_NET *31 0.000301092
*CONN
*I *1288:D I *D sky130_fd_sc_hd__dfrtp_1
*I *1133:X O *D sky130_fd_sc_hd__clkbuf_1
*CAP
1 *1288:D 0.000105283
2 *1133:X 0.000105283
3 *1288:D *1288:CLK 7.57394e-05
4 *1288:D *1288:RESET_B 1.47872e-05
*RES
1 *1133:X *1288:D 20.7964 
*END

*D_NET *32 0.0017821
*CONN
*I *1289:D I *D sky130_fd_sc_hd__dfrtp_1
*I *1135:X O *D sky130_fd_sc_hd__clkbuf_1
*CAP
1 *1289:D 0.00046875
2 *1135:X 0.00046875
3 *1289:D *1132:A0 0.000139388
4 *1289:D *1132:S 0
5 *1289:D *1134:A0 1.42165e-05
6 *1289:D *1134:A1 5.76945e-05
7 *1289:D *1135:A 0.000339315
8 *1289:D *1288:CLK 0.000143967
9 *1289:D *1289:CLK 0.000150019
*RES
1 *1135:X *1289:D 37.5107 
*END

*D_NET *33 0.00108694
*CONN
*I *1290:D I *D sky130_fd_sc_hd__dfrtp_1
*I *1137:X O *D sky130_fd_sc_hd__clkbuf_1
*CAP
1 *1290:D 0.000419682
2 *1137:X 0.000419682
3 *1290:D *1136:A0 9.15842e-06
4 *1290:D *1137:A 9.43804e-05
5 *1290:D *1290:CLK 1.84776e-05
6 *1290:D *243:112 0.000125557
*RES
1 *1137:X *1290:D 34.4036 
*END

*D_NET *34 0.000569277
*CONN
*I *1291:D I *D sky130_fd_sc_hd__dfrtp_1
*I *1145:X O *D sky130_fd_sc_hd__clkbuf_1
*CAP
1 *1291:D 0.000228971
2 *1145:X 0.000228971
3 *1291:D *1076:A 3.9733e-05
4 *1291:D *1145:A 3.9733e-05
5 *1291:D *1291:CLK 3.18676e-05
6 *1291:D *256:23 0
7 *1408:A *1291:D 0
*RES
1 *1145:X *1291:D 31.9036 
*END

*D_NET *35 0.000347992
*CONN
*I *1292:D I *D sky130_fd_sc_hd__dfrtp_1
*I *1147:X O *D sky130_fd_sc_hd__clkbuf_1
*CAP
1 *1292:D 0.000118541
2 *1147:X 0.000118541
3 *1292:D *1147:A 1.24368e-05
4 *1292:D *1292:RESET_B 9.84729e-05
*RES
1 *1147:X *1292:D 20.7964 
*END

*D_NET *36 0.000366591
*CONN
*I *1293:D I *D sky130_fd_sc_hd__dfrtp_1
*I *1148:X O *D sky130_fd_sc_hd__a21o_1
*CAP
1 *1293:D 0.00013255
2 *1148:X 0.00013255
3 *1293:D *1293:CLK 8.86129e-06
4 *1293:D *1294:CLK 3.92854e-05
5 *1293:D *240:14 5.33433e-05
6 *1293:D *281:27 0
*RES
1 *1148:X *1293:D 29.6402 
*END

*D_NET *37 0.000283006
*CONN
*I *1294:D I *D sky130_fd_sc_hd__dfrtp_1
*I *1156:X O *D sky130_fd_sc_hd__clkbuf_1
*CAP
1 *1294:D 0.000107753
2 *1156:X 0.000107753
3 *1294:D *1156:A 6.75007e-05
*RES
1 *1156:X *1294:D 29.7786 
*END

*D_NET *38 0.00025702
*CONN
*I *1295:D I *D sky130_fd_sc_hd__dfrtp_1
*I *1158:X O *D sky130_fd_sc_hd__clkbuf_1
*CAP
1 *1295:D 0.000125686
2 *1158:X 0.000125686
3 *1295:D *303:6 5.64835e-06
*RES
1 *1158:X *1295:D 29.475 
*END

*D_NET *39 0.000328055
*CONN
*I *1296:D I *D sky130_fd_sc_hd__dfrtp_1
*I *1159:X O *D sky130_fd_sc_hd__a21o_1
*CAP
1 *1296:D 0.000113073
2 *1159:X 0.000113073
3 *1296:D *239:87 0.000101908
*RES
1 *1159:X *1296:D 29.475 
*END

*D_NET *40 0.000514778
*CONN
*I *1297:D I *D sky130_fd_sc_hd__dfrtp_1
*I *1161:X O *D sky130_fd_sc_hd__clkbuf_1
*CAP
1 *1297:D 0.000151274
2 *1161:X 0.000151274
3 *1297:D *1297:RESET_B 2.21972e-05
4 *1297:D *1298:CLK 5.20692e-05
5 *1297:D *256:722 5.78834e-05
6 *1297:D *324:10 8.00806e-05
*RES
1 *1161:X *1297:D 30.8321 
*END

*D_NET *41 0.000748071
*CONN
*I *1298:D I *D sky130_fd_sc_hd__dfrtp_1
*I *1163:X O *D sky130_fd_sc_hd__clkbuf_1
*CAP
1 *1298:D 0.000324058
2 *1163:X 0.000324058
3 *1298:D *1160:S 0
4 *1298:D *1162:A0 9.35794e-06
5 *1298:D *1163:A 2.07878e-05
6 *1298:D *1371:A 1.48543e-05
7 *1298:D *256:737 5.49544e-05
*RES
1 *1163:X *1298:D 32.85 
*END

*D_NET *42 0.000278988
*CONN
*I *1299:D I *D sky130_fd_sc_hd__dfrtp_1
*I *1165:X O *D sky130_fd_sc_hd__clkbuf_1
*CAP
1 *1299:D 0.000128927
2 *1165:X 0.000128927
3 *1299:D *1299:CLK 2.11336e-05
*RES
1 *1165:X *1299:D 20.7964 
*END

*D_NET *43 0.000325435
*CONN
*I *1300:D I *D sky130_fd_sc_hd__dfrtp_1
*I *1173:X O *D sky130_fd_sc_hd__clkbuf_1
*CAP
1 *1300:D 8.35361e-05
2 *1173:X 8.35361e-05
3 *1300:D *1173:A 5.33882e-05
4 *1300:D *319:12 0.000104974
*RES
1 *1173:X *1300:D 29.475 
*END

*D_NET *44 0.000199393
*CONN
*I *1301:D I *D sky130_fd_sc_hd__dfrtp_1
*I *1175:X O *D sky130_fd_sc_hd__clkbuf_1
*CAP
1 *1301:D 9.96967e-05
2 *1175:X 9.96967e-05
3 *1301:D *256:86 0
*RES
1 *1175:X *1301:D 29.2429 
*END

*D_NET *45 0.000634588
*CONN
*I *1302:D I *D sky130_fd_sc_hd__dfrtp_1
*I *1176:X O *D sky130_fd_sc_hd__a21o_1
*CAP
1 *1302:D 0.000183421
2 *1176:X 0.000183421
3 *1302:D *1176:B1 5.32071e-05
4 *1302:D *1306:RESET_B 4.79864e-05
5 *1302:D *93:139 2.63719e-05
6 *1302:D *242:47 8.51756e-05
7 *1302:D *249:14 5.50052e-05
*RES
1 *1176:X *1302:D 31.9036 
*END

*D_NET *46 0.000657863
*CONN
*I *1303:D I *D sky130_fd_sc_hd__dfrtp_1
*I *1178:X O *D sky130_fd_sc_hd__clkbuf_1
*CAP
1 *1303:D 0.000180574
2 *1178:X 0.000180574
3 *1303:D *1303:CLK 4.41588e-05
4 *1303:D *1303:RESET_B 0.000126278
5 *1303:D *325:61 0.000126278
*RES
1 *1178:X *1303:D 31.4214 
*END

*D_NET *47 0.000381862
*CONN
*I *1304:D I *D sky130_fd_sc_hd__dfrtp_1
*I *1180:X O *D sky130_fd_sc_hd__clkbuf_1
*CAP
1 *1304:D 0.000145398
2 *1180:X 0.000145398
3 *1304:D *239:87 1.27078e-05
4 *1304:D *256:621 7.83587e-05
5 *1304:D *291:12 0
*RES
1 *1180:X *1304:D 29.8857 
*END

*D_NET *48 0.000898743
*CONN
*I *1305:D I *D sky130_fd_sc_hd__dfrtp_1
*I *1182:X O *D sky130_fd_sc_hd__clkbuf_1
*CAP
1 *1305:D 0.000230374
2 *1182:X 0.000230374
3 *1305:D *1375:A 4.78056e-05
4 *1305:D *324:68 0.000313458
5 *1305:D *325:46 7.67315e-05
*RES
1 *1182:X *1305:D 32.7429 
*END

*D_NET *49 0.000262844
*CONN
*I *1306:D I *D sky130_fd_sc_hd__dfrtp_1
*I *1190:X O *D sky130_fd_sc_hd__clkbuf_1
*CAP
1 *1306:D 0.000120855
2 *1190:X 0.000120855
3 *1306:D *249:14 2.11336e-05
*RES
1 *1190:X *1306:D 29.475 
*END

*D_NET *50 0.000260836
*CONN
*I *1307:D I *D sky130_fd_sc_hd__dfrtp_1
*I *1192:X O *D sky130_fd_sc_hd__clkbuf_1
*CAP
1 *1307:D 9.31151e-05
2 *1192:X 9.31151e-05
3 *1307:D *1192:A 3.92854e-05
4 *1307:D *242:81 3.53199e-05
5 *1307:D *242:85 0
*RES
1 *1192:X *1307:D 29.2295 
*END

*D_NET *51 0.000660113
*CONN
*I *1308:D I *D sky130_fd_sc_hd__dfrtp_1
*I *1193:X O *D sky130_fd_sc_hd__a21o_1
*CAP
1 *1308:D 0.000270308
2 *1193:X 0.000270308
3 *1308:D *1193:A1 9.33978e-07
4 *1308:D *1193:B1 3.23672e-05
5 *1308:D *1312:CLK 3.69697e-05
6 *1308:D *242:79 4.92269e-05
7 *1308:D *252:12 0
*RES
1 *1193:X *1308:D 31.2652 
*END

*D_NET *52 0.000867344
*CONN
*I *1309:D I *D sky130_fd_sc_hd__dfrtp_1
*I *1195:X O *D sky130_fd_sc_hd__clkbuf_1
*CAP
1 *1309:D 0.000383085
2 *1195:X 0.000383085
3 *1309:D *1309:CLK 0.000101173
4 *1309:D *93:120 0
*RES
1 *1195:X *1309:D 32.8857 
*END

*D_NET *53 0.00035093
*CONN
*I *1310:D I *D sky130_fd_sc_hd__dfrtp_1
*I *1197:X O *D sky130_fd_sc_hd__clkbuf_1
*CAP
1 *1310:D 0.000122883
2 *1197:X 0.000122883
3 *1310:D *1197:A 0.000105163
*RES
1 *1197:X *1310:D 21.2071 
*END

*D_NET *54 0.000300582
*CONN
*I *1311:D I *D sky130_fd_sc_hd__dfrtp_1
*I *1199:X O *D sky130_fd_sc_hd__clkbuf_1
*CAP
1 *1311:D 0.000110886
2 *1199:X 0.000110886
3 *1311:D *1311:CLK 7.88091e-05
*RES
1 *1199:X *1311:D 20.7964 
*END

*D_NET *55 0.000349315
*CONN
*I *1312:D I *D sky130_fd_sc_hd__dfrtp_1
*I *1201:X O *D sky130_fd_sc_hd__clkbuf_1
*CAP
1 *1312:D 0.000106972
2 *1201:X 0.000106972
3 *1312:D *1129:A2 6.59263e-05
4 *1312:D *1129:C1 3.46491e-05
5 *1312:D *1201:A 1.24368e-05
6 *1312:D *1312:CLK 2.23592e-05
*RES
1 *1201:X *1312:D 20.7964 
*END

*D_NET *56 0.000792651
*CONN
*I *1313:D I *D sky130_fd_sc_hd__dfrtp_1
*I *1203:X O *D sky130_fd_sc_hd__clkbuf_1
*CAP
1 *1313:D 0.000332558
2 *1203:X 0.000332558
3 *1313:D *1126:A 0
4 *1313:D *1203:A 4.15914e-05
5 *1313:D *1314:D 0
6 *1313:D *253:12 8.59435e-05
7 *1313:D *255:12 0
8 *1313:D *353:8 0
*RES
1 *1203:X *1313:D 33.85 
*END

*D_NET *57 0.000541754
*CONN
*I *1314:D I *D sky130_fd_sc_hd__dfrtp_1
*I *1204:X O *D sky130_fd_sc_hd__a21o_1
*CAP
1 *1314:D 0.000270877
2 *1204:X 0.000270877
3 *1313:D *1314:D 0
*RES
1 *1204:X *1314:D 32.0286 
*END

*D_NET *58 0.000347733
*CONN
*I *1315:D I *D sky130_fd_sc_hd__dfrtp_1
*I *1206:X O *D sky130_fd_sc_hd__clkbuf_1
*CAP
1 *1315:D 9.54698e-05
2 *1206:X 9.54698e-05
3 *1315:D *1206:A 4.79864e-05
4 *1315:D *243:30 9.96487e-05
5 *1315:D *243:43 9.15842e-06
*RES
1 *1206:X *1315:D 29.475 
*END

*D_NET *59 0.000826799
*CONN
*I *1316:D I *D sky130_fd_sc_hd__dfrtp_1
*I *1208:X O *D sky130_fd_sc_hd__clkbuf_1
*CAP
1 *1316:D 0.000305495
2 *1208:X 0.000305495
3 *1316:D *1176:A2 0.000103735
4 *1316:D *1176:B1 5.49544e-05
5 *1316:D *1208:A 5.7119e-05
*RES
1 *1208:X *1316:D 32.3679 
*END

*D_NET *60 0.000340399
*CONN
*I *1317:D I *D sky130_fd_sc_hd__dfrtp_1
*I *1210:X O *D sky130_fd_sc_hd__clkbuf_1
*CAP
1 *1317:D 0.000143528
2 *1210:X 0.000143528
3 *1317:D *1209:A0 5.33433e-05
*RES
1 *1210:X *1317:D 21.2071 
*END

*D_NET *61 0.0002921
*CONN
*I *1318:D I *D sky130_fd_sc_hd__dfrtp_1
*I *1212:X O *D sky130_fd_sc_hd__clkbuf_1
*CAP
1 *1318:D 7.96871e-05
2 *1212:X 7.96871e-05
3 *1318:D *1318:CLK 3.08664e-05
4 *1318:D *126:233 0.000101859
*RES
1 *1212:X *1318:D 20.7964 
*END

*D_NET *62 0.000624879
*CONN
*I *1319:D I *D sky130_fd_sc_hd__dfrtp_1
*I *1214:X O *D sky130_fd_sc_hd__clkbuf_1
*CAP
1 *1319:D 0.000240101
2 *1214:X 0.000240101
3 *1319:D *1214:A 7.74068e-05
4 *1319:D *1318:CLK 3.67279e-06
5 *1319:D *305:12 6.35976e-05
*RES
1 *1214:X *1319:D 32.2071 
*END

*D_NET *63 0.00122894
*CONN
*I *1320:D I *D sky130_fd_sc_hd__dfrtp_1
*I *1216:X O *D sky130_fd_sc_hd__clkbuf_1
*CAP
1 *1320:D 0.000528281
2 *1216:X 0.000528281
3 *1320:D *246:58 0.000172377
*RES
1 *1216:X *1320:D 35.225 
*END

*D_NET *64 0.000273853
*CONN
*I *1321:D I *D sky130_fd_sc_hd__dfrtp_1
*I *1218:X O *D sky130_fd_sc_hd__clkbuf_1
*CAP
1 *1321:D 9.32447e-05
2 *1218:X 9.32447e-05
3 *1321:D *246:20 5.6255e-05
4 *1321:D *246:26 3.11088e-05
*RES
1 *1218:X *1321:D 20.7964 
*END

*D_NET *65 0.000592931
*CONN
*I *1322:D I *D sky130_fd_sc_hd__dfrtp_1
*I *1220:X O *D sky130_fd_sc_hd__clkbuf_1
*CAP
1 *1322:D 0.000203867
2 *1220:X 0.000203867
3 *1322:D *1134:A1 3.54498e-05
4 *1322:D *1205:A0 5.09591e-05
5 *1322:D *1388:A 2.33012e-05
6 *1322:D *243:62 7.54868e-05
*RES
1 *1220:X *1322:D 30.5866 
*END

*D_NET *66 0.000902979
*CONN
*I *1323:D I *D sky130_fd_sc_hd__dfrtp_1
*I *1222:X O *D sky130_fd_sc_hd__clkbuf_1
*CAP
1 *1323:D 0.000419817
2 *1222:X 0.000419817
3 *1323:D *1221:A1 2.40603e-05
4 *1323:D *256:280 3.92854e-05
*RES
1 *1222:X *1323:D 32.8857 
*END

*D_NET *67 0.000554261
*CONN
*I *1324:D I *D sky130_fd_sc_hd__dfrtp_1
*I *1224:X O *D sky130_fd_sc_hd__clkbuf_1
*CAP
1 *1324:D 0.00015072
2 *1224:X 0.00015072
3 *1324:D *1194:A0 0
4 *1324:D *1324:CLK 2.11336e-05
5 *1324:D *1324:RESET_B 0.000182761
6 *1324:D *126:169 4.89267e-05
*RES
1 *1224:X *1324:D 30.7071 
*END

*D_NET *68 0.000320338
*CONN
*I *1325:D I *D sky130_fd_sc_hd__dfrtp_1
*I *1226:X O *D sky130_fd_sc_hd__clkbuf_1
*CAP
1 *1325:D 5.11128e-05
2 *1226:X 5.11128e-05
3 *1325:D *1226:A 0.000121629
4 *1325:D *1325:CLK 3.08664e-05
5 *1325:D *256:234 6.56176e-05
*RES
1 *1226:X *1325:D 20.7964 
*END

*D_NET *69 0.000438936
*CONN
*I *1326:D I *D sky130_fd_sc_hd__dfrtp_1
*I *1228:X O *D sky130_fd_sc_hd__clkbuf_1
*CAP
1 *1326:D 0.000147431
2 *1228:X 0.000147431
3 *1326:D *1326:CLK 0.000144074
*RES
1 *1228:X *1326:D 21.6179 
*END

*D_NET *70 0.000206314
*CONN
*I *1327:D I *D sky130_fd_sc_hd__dfrtp_1
*I *1230:X O *D sky130_fd_sc_hd__clkbuf_1
*CAP
1 *1327:D 7.7657e-05
2 *1230:X 7.7657e-05
3 *1327:D *1230:A 5.09999e-05
*RES
1 *1230:X *1327:D 28.9393 
*END

*D_NET *71 0.000485021
*CONN
*I *1328:D I *D sky130_fd_sc_hd__dfrtp_1
*I *1232:X O *D sky130_fd_sc_hd__clkbuf_1
*CAP
1 *1328:D 0.000143079
2 *1232:X 0.000143079
3 *1328:D *1231:A0 8.59394e-05
4 *1328:D *1327:RESET_B 6.84805e-05
5 *1328:D *1328:RESET_B 3.44093e-05
6 *1328:D *256:673 1.00332e-05
*RES
1 *1232:X *1328:D 30.4214 
*END

*D_NET *72 0.000572527
*CONN
*I *1329:D I *D sky130_fd_sc_hd__dfrtp_1
*I *1234:X O *D sky130_fd_sc_hd__clkbuf_1
*CAP
1 *1329:D 0.000214839
2 *1234:X 0.000214839
3 *1329:D *1181:A0 0.00014285
4 *1329:D *1332:CLK 0
5 *1329:D *1332:RESET_B 0
6 *1329:D *244:50 0
*RES
1 *1234:X *1329:D 30.9036 
*END

*D_NET *73 0.000281315
*CONN
*I *1330:D I *D sky130_fd_sc_hd__dfrtp_1
*I *1236:X O *D sky130_fd_sc_hd__clkbuf_1
*CAP
1 *1330:D 0.000132526
2 *1236:X 0.000132526
3 *1330:D *359:12 1.62621e-05
*RES
1 *1236:X *1330:D 29.475 
*END

*D_NET *74 0.00117129
*CONN
*I *1331:D I *D sky130_fd_sc_hd__dfrtp_1
*I *1238:X O *D sky130_fd_sc_hd__clkbuf_1
*CAP
1 *1331:D 0.00019739
2 *1238:X 0.00019739
3 *1331:D *1162:A0 5.66971e-05
4 *1331:D *1235:S 0
5 *1331:D *1237:A1 0.000443612
6 *1331:D *1238:A 0.000195474
7 *1331:D *1363:A 4.605e-05
8 *1331:D *1364:A 3.46801e-05
*RES
1 *1238:X *1331:D 34.1893 
*END

*D_NET *75 0.000769207
*CONN
*I *1332:D I *D sky130_fd_sc_hd__dfrtp_1
*I *1240:X O *D sky130_fd_sc_hd__clkbuf_1
*CAP
1 *1332:D 0.00031545
2 *1240:X 0.00031545
3 *1332:D *1240:A 5.65955e-05
4 *1332:D *1332:CLK 8.17114e-05
*RES
1 *1240:X *1332:D 24.0821 
*END

*D_NET *76 0.000464537
*CONN
*I *1333:D I *D sky130_fd_sc_hd__dfrtp_1
*I *1242:X O *D sky130_fd_sc_hd__clkbuf_1
*CAP
1 *1333:D 0.000135595
2 *1242:X 0.000135595
3 *1333:D *1242:A 6.5185e-05
4 *30:10 *1333:D 0.000128161
*RES
1 *1242:X *1333:D 30.3143 
*END

*D_NET *77 0.000466474
*CONN
*I *1334:D I *D sky130_fd_sc_hd__dfrtp_1
*I *1244:X O *D sky130_fd_sc_hd__clkbuf_1
*CAP
1 *1334:D 0.000163632
2 *1244:X 0.000163632
3 *1334:D *1244:A 0.00013921
*RES
1 *1244:X *1334:D 20.7964 
*END

*D_NET *78 0.000470535
*CONN
*I *1335:D I *D sky130_fd_sc_hd__dfrtp_1
*I *1246:X O *D sky130_fd_sc_hd__clkbuf_1
*CAP
1 *1335:D 0.000165787
2 *1246:X 0.000165787
3 *1335:D *1246:A 0.000138961
*RES
1 *1246:X *1335:D 20.7964 
*END

*D_NET *79 0.000292616
*CONN
*I *1337:D I *D sky130_fd_sc_hd__dfrtp_1
*I *1250:X O *D sky130_fd_sc_hd__clkbuf_1
*CAP
1 *1337:D 0.000130875
2 *1250:X 0.000130875
3 *1337:D *1337:CLK 3.08664e-05
*RES
1 *1250:X *1337:D 20.7964 
*END

*D_NET *80 0.000274854
*CONN
*I *1338:D I *D sky130_fd_sc_hd__dfrtp_1
*I *1253:X O *D sky130_fd_sc_hd__clkbuf_1
*CAP
1 *1338:D 3.75945e-05
2 *1253:X 3.75945e-05
3 *1338:D *1253:A 6.97972e-05
4 *30:20 *1338:D 0.000129868
*RES
1 *1253:X *1338:D 29.2429 
*END

*D_NET *81 0.0002911
*CONN
*I *1339:D I *D sky130_fd_sc_hd__dfrtp_1
*I *1255:X O *D sky130_fd_sc_hd__clkbuf_1
*CAP
1 *1339:D 0.000131349
2 *1255:X 0.000131349
3 *1339:D *245:69 2.84026e-05
*RES
1 *1255:X *1339:D 20.7964 
*END

*D_NET *82 0.000372809
*CONN
*I *1340:D I *D sky130_fd_sc_hd__dfrtp_4
*I *1260:X O *D sky130_fd_sc_hd__clkbuf_1
*CAP
1 *1340:D 0.000172199
2 *1260:X 0.000172199
3 *1340:D *1340:CLK 2.84109e-05
*RES
1 *1260:X *1340:D 20.7964 
*END

*D_NET *83 0.000273954
*CONN
*I *1341:D I *D sky130_fd_sc_hd__dfrtp_1
*I *1265:X O *D sky130_fd_sc_hd__o211a_1
*CAP
1 *1341:D 8.60476e-05
2 *1265:X 8.60476e-05
3 *1341:D *1342:CLK 3.08664e-05
4 *1341:D *247:36 7.09928e-05
*RES
1 *1265:X *1341:D 20.3679 
*END

*D_NET *84 0.000365372
*CONN
*I *1342:D I *D sky130_fd_sc_hd__dfrtp_1
*I *1268:Y O *D sky130_fd_sc_hd__a21oi_1
*CAP
1 *1342:D 0.000150795
2 *1268:Y 0.000150795
3 *1342:D *1342:CLK 3.48705e-05
4 *1342:D *256:315 2.89114e-05
*RES
1 *1268:Y *1342:D 21.2786 
*END

*D_NET *85 0.00124087
*CONN
*I *1344:D I *D sky130_fd_sc_hd__dfrtp_1
*I *1270:Y O *D sky130_fd_sc_hd__nand2_1
*CAP
1 *1344:D 0.000595372
2 *1270:Y 0.000595372
3 *1344:D *1269:B1 5.01213e-05
4 *1344:D *1344:RESET_B 0
5 *1344:D *134:12 0
*RES
1 *1270:Y *1344:D 35.7607 
*END

*D_NET *86 0.000762124
*CONN
*I *1345:D I *D sky130_fd_sc_hd__dfrtp_1
*I *1272:Y O *D sky130_fd_sc_hd__nand2_1
*CAP
1 *1345:D 0.000273931
2 *1272:Y 0.000273931
3 *1345:D *1249:A1 0.000193475
4 *1345:D *1272:B 2.07878e-05
*RES
1 *1272:Y *1345:D 32.6714 
*END

*D_NET *87 0.000381651
*CONN
*I *1346:D I *D sky130_fd_sc_hd__dfrtp_1
*I *1275:X O *D sky130_fd_sc_hd__clkbuf_1
*CAP
1 *1346:D 0.000190826
2 *1275:X 0.000190826
*RES
1 *1275:X *1346:D 21.2071 
*END

*D_NET *88 0.00157637
*CONN
*I *1347:D I *D sky130_fd_sc_hd__dfrtp_1
*I *1278:X O *D sky130_fd_sc_hd__clkbuf_1
*CAP
1 *1347:D 0.000507721
2 *1278:X 0.000507721
3 *1347:D *1277:B 0.000121254
4 *1347:D *1278:A 6.77328e-05
5 *1347:D *1347:RESET_B 4.08637e-05
6 *1347:D *1433:A 0.000162565
7 *1347:D *124:6 1.28171e-05
8 *1347:D *124:34 2.10824e-05
9 *1347:D *256:451 9.83388e-05
10 *1347:D *256:459 3.04082e-05
11 *1347:D *355:48 5.86821e-06
*RES
1 *1278:X *1347:D 35.975 
*END

*D_NET *89 0.000368403
*CONN
*I *1348:D I *D sky130_fd_sc_hd__dfrtp_1
*I *1281:X O *D sky130_fd_sc_hd__clkbuf_1
*CAP
1 *1348:D 0.000165606
2 *1281:X 0.000165606
3 *1348:D *1348:CLK 1.93007e-05
4 *1348:D *1348:RESET_B 1.789e-05
*RES
1 *1281:X *1348:D 20.7964 
*END

*D_NET *90 0.000911988
*CONN
*I *1349:D I *D sky130_fd_sc_hd__dfrtp_4
*I *1282:X O *D sky130_fd_sc_hd__xor2_1
*CAP
1 *1349:D 0.00028953
2 *1282:X 0.00028953
3 *1349:D *1349:CLK 6.58195e-05
4 *1349:D *1349:RESET_B 0
5 *1349:D *240:94 8.36642e-05
6 *1349:D *256:707 0
7 *1349:D *298:18 0.000183445
*RES
1 *1282:X *1349:D 34.35 
*END

*D_NET *91 0.000461794
*CONN
*I *1350:D I *D sky130_fd_sc_hd__dfrtp_4
*I *1284:Y O *D sky130_fd_sc_hd__nor2_1
*CAP
1 *1350:D 0.000132005
2 *1284:Y 0.000132005
3 *1350:D *1284:A 0.000101915
4 *1350:D *291:12 9.58689e-05
*RES
1 *1284:Y *1350:D 29.8857 
*END

*D_NET *92 0.00102891
*CONN
*I *1351:D I *D sky130_fd_sc_hd__dfrtp_4
*I *1286:Y O *D sky130_fd_sc_hd__nor2_1
*CAP
1 *1351:D 0.000351218
2 *1286:Y 0.000351218
3 *1351:D *1286:B 9.65279e-05
4 *1351:D *1351:RESET_B 0.000132234
5 *1286:A *1351:D 9.77118e-05
*RES
1 *1286:Y *1351:D 32.6 
*END

*D_NET *93 0.0209962
*CONN
*I *1159:A1 I *D sky130_fd_sc_hd__a21o_1
*I *1176:A1 I *D sky130_fd_sc_hd__a21o_1
*I *1193:A1 I *D sky130_fd_sc_hd__a21o_1
*I *1204:A2 I *D sky130_fd_sc_hd__a21o_1
*I *1131:C1 I *D sky130_fd_sc_hd__o221a_2
*I *1188:C1 I *D sky130_fd_sc_hd__o221a_2
*I *1171:C1 I *D sky130_fd_sc_hd__o221a_2
*I *1154:C1 I *D sky130_fd_sc_hd__o221a_2
*I *1148:A1 I *D sky130_fd_sc_hd__a21o_1
*I *1143:C1 I *D sky130_fd_sc_hd__o221a_2
*I *1077:A I *D sky130_fd_sc_hd__and3_1
*I *1283:A1 I *D sky130_fd_sc_hd__a21oi_1
*I *1282:A I *D sky130_fd_sc_hd__xor2_1
*I *1076:X O *D sky130_fd_sc_hd__buf_4
*CAP
1 *1159:A1 0.000357772
2 *1176:A1 3.5428e-05
3 *1193:A1 4.68395e-05
4 *1204:A2 0.000555976
5 *1131:C1 0
6 *1188:C1 2.90911e-05
7 *1171:C1 0.000115027
8 *1154:C1 0
9 *1148:A1 7.04168e-05
10 *1143:C1 3.21767e-05
11 *1077:A 0.00042419
12 *1283:A1 0
13 *1282:A 0
14 *1076:X 0.000144534
15 *93:168 0.000893398
16 *93:164 0.000884357
17 *93:147 0.000967266
18 *93:139 0.000906874
19 *93:120 0.00127525
20 *93:114 0.00139138
21 *93:95 0.000931408
22 *93:66 0.000930416
23 *93:53 0.000595574
24 *93:23 0.000670113
25 *93:10 0.00076684
26 *93:6 0.000993508
27 *1077:A *1283:A2 2.30303e-05
28 *1077:A *1284:B 3.41517e-06
29 *1077:A *1285:A 0.000141734
30 *1077:A *328:10 0.000126272
31 *1143:C1 *1142:A1 5.23822e-05
32 *1143:C1 *1143:A2 5.10339e-05
33 *1143:C1 *1143:B2 6.6684e-05
34 *1148:A1 *1148:B1 0.000203483
35 *1148:A1 *281:14 3.88512e-05
36 *1148:A1 *281:27 9.90367e-05
37 *1159:A1 *1159:A2 0.000173273
38 *1159:A1 *1159:B1 1.47972e-05
39 *1159:A1 *1296:RESET_B 4.24224e-05
40 *1159:A1 *1403:A 2.16394e-05
41 *1159:A1 *162:44 1.83626e-05
42 *1171:C1 *1171:B2 1.06173e-05
43 *1171:C1 *1172:S 5.33005e-05
44 *1171:C1 *1355:A 0.00013314
45 *1171:C1 *173:8 2.95577e-05
46 *1176:A1 *1316:CLK 1.24368e-05
47 *1188:C1 *1187:B1 0
48 *1188:C1 *1188:B2 1.3701e-05
49 *1188:C1 *184:12 1.15299e-05
50 *1204:A2 *1129:A1 7.00781e-05
51 *1204:A2 *1130:B1 9.71197e-05
52 *1204:A2 *1131:B1 5.54817e-06
53 *1204:A2 *1202:A0 1.55885e-05
54 *1204:A2 *1202:S 0.0001244
55 *1204:A2 *1204:B1 0.00010096
56 *1204:A2 *1394:A 2.89016e-05
57 *1204:A2 *255:23 0.000228628
58 *93:6 *1145:A 5.62995e-05
59 *93:6 *256:23 5.03772e-05
60 *93:10 *1144:A0 0.00014285
61 *93:10 *1144:S 0.000357952
62 *93:10 *256:23 2.95641e-05
63 *93:10 *327:12 0.000181803
64 *93:23 *240:94 6.69975e-05
65 *93:23 *298:18 2.84026e-05
66 *93:53 *1141:C1 0.000124019
67 *93:53 *1142:B1 6.4404e-05
68 *93:53 *1144:A1 0.000360413
69 *93:53 *256:23 2.90958e-05
70 *93:53 *270:14 2.02692e-05
71 *93:66 *1142:B1 5.24684e-06
72 *93:66 *1294:RESET_B 0
73 *93:66 *240:12 0
74 *93:66 *281:27 0.000384765
75 *93:95 *1151:A 0.000103983
76 *93:95 *1155:A0 4.15914e-05
77 *93:95 *1155:S 0
78 *93:95 *1156:A 0
79 *93:95 *1294:CLK 0
80 *93:95 *1295:CLK 0.000176828
81 *93:95 *158:12 0.00022115
82 *93:95 *240:8 2.89114e-05
83 *93:95 *240:12 0
84 *93:95 *303:27 7.74068e-05
85 *93:95 *314:18 1.86284e-05
86 *93:114 *1154:A2 6.34496e-05
87 *93:114 *1154:B1 1.28809e-05
88 *93:114 *1154:B2 9.85599e-06
89 *93:114 *1157:S 4.16864e-05
90 *93:114 *1296:RESET_B 5.33005e-05
91 *93:114 *162:12 7.2266e-05
92 *93:114 *162:44 4.63219e-05
93 *93:120 *1167:A 0
94 *93:120 *1174:A0 3.92854e-05
95 *93:120 *1174:S 0.000177941
96 *93:120 *1175:A 0.000144623
97 *93:120 *1309:CLK 0
98 *93:120 *1355:A 6.8646e-06
99 *93:120 *1403:A 1.25366e-05
100 *93:120 *256:76 0.000100248
101 *93:120 *256:86 0
102 *93:120 *256:112 0.000250208
103 *93:120 *314:10 0
104 *93:139 *1171:B1 0
105 *93:139 *1176:B1 0.000101777
106 *93:139 *1185:A 0
107 *93:139 *1306:RESET_B 0.000146991
108 *93:139 *1355:A 1.19402e-05
109 *93:139 *242:60 0.000196086
110 *93:139 *256:112 0.000350131
111 *93:147 *1176:A2 5.7661e-06
112 *93:147 *1176:B1 1.04232e-05
113 *93:147 *1185:A 0.000150625
114 *93:147 *1186:A1 0.000173097
115 *93:147 *1188:B1 5.01213e-05
116 *93:147 *1189:S 0
117 *93:147 *1316:CLK 1.6132e-05
118 *93:147 *1396:A 7.62323e-05
119 *93:164 *1186:A1 7.29667e-05
120 *93:164 *1188:A2 0
121 *93:164 *1188:B1 3.40128e-05
122 *93:164 *1191:A0 4.33438e-05
123 *93:164 *1193:A2 7.62323e-05
124 *93:164 *1398:A 0.000298
125 *93:164 *252:12 0
126 *93:164 *256:821 0.000249145
127 *93:168 *1129:A1 8.74621e-05
128 *93:168 *1131:B1 6.14605e-05
129 *93:168 *1312:CLK 0.000103745
130 *93:168 *252:10 2.09722e-05
131 *1302:D *93:139 2.63719e-05
132 *1308:D *1193:A1 9.33978e-07
133 *1309:D *93:120 0
*RES
1 *1076:X *93:6 12.3 
2 *93:6 *93:10 11.2321 
3 *93:10 *1282:A 9.3 
4 *93:10 *93:23 12.8036 
5 *93:23 *1283:A1 9.3 
6 *93:23 *1077:A 26.425 
7 *93:6 *93:53 12.2679 
8 *93:53 *1143:C1 15.175 
9 *93:53 *93:66 5.28571 
10 *93:66 *1148:A1 16.425 
11 *93:66 *93:95 26.3036 
12 *93:95 *1154:C1 9.3 
13 *93:95 *93:114 6.60714 
14 *93:114 *93:120 19.5357 
15 *93:120 *1171:C1 16.9607 
16 *93:120 *93:139 14.3393 
17 *93:139 *93:147 13.2321 
18 *93:147 *1188:C1 14.5321 
19 *93:147 *93:164 14.2321 
20 *93:164 *93:168 11 
21 *93:168 *1131:C1 13.8 
22 *93:168 *1204:A2 24.2643 
23 *93:164 *1193:A1 9.83571 
24 *93:139 *1176:A1 9.83571 
25 *93:114 *1159:A1 23.2821 
*END

*D_NET *94 0.00203803
*CONN
*I *1078:B I *D sky130_fd_sc_hd__and2_1
*I *1285:B I *D sky130_fd_sc_hd__nor2_1
*I *1284:A I *D sky130_fd_sc_hd__nor2_1
*I *1077:X O *D sky130_fd_sc_hd__and3_1
*CAP
1 *1078:B 1.23118e-05
2 *1285:B 0.000139056
3 *1284:A 0.000149952
4 *1077:X 4.36033e-05
5 *94:25 0.000363457
6 *94:8 0.000405645
7 *1078:B *1078:A 5.38444e-06
8 *1284:A *1283:A2 0.000310847
9 *1285:B *1079:A 0.000143375
10 *1285:B *240:90 7.11153e-05
11 *94:8 *1077:B 5.33005e-05
12 *94:25 *1078:A 2.11336e-05
13 *94:25 *1283:A2 9.33486e-05
14 *94:25 *240:90 2.84026e-05
15 *94:25 *240:92 4.37079e-05
16 *94:25 *256:621 4.45377e-05
17 *1287:D *94:25 6.93704e-06
18 *1350:D *1284:A 0.000101915
*RES
1 *1077:X *94:8 14.3357 
2 *94:8 *1284:A 17.8714 
3 *94:8 *94:25 8.83929 
4 *94:25 *1285:B 12.3179 
5 *94:25 *1078:B 9.72857 
*END

*D_NET *95 0.000324302
*CONN
*I *1079:A I *D sky130_fd_sc_hd__clkbuf_1
*I *1078:X O *D sky130_fd_sc_hd__and2_1
*CAP
1 *1079:A 1.87758e-05
2 *1078:X 1.87758e-05
3 *1079:A *240:90 0.000143375
4 *1285:B *1079:A 0.000143375
*RES
1 *1078:X *1079:A 19.9571 
*END

*D_NET *96 0.00032298
*CONN
*I *1089:A2 I *D sky130_fd_sc_hd__a211o_1
*I *1080:Y O *D sky130_fd_sc_hd__inv_2
*CAP
1 *1089:A2 0.000103323
2 *1080:Y 0.000103323
3 *1089:A2 *1088:A1 0
4 *1089:A2 *1089:C1 2.79092e-05
5 *1089:A2 *1262:A 2.89016e-05
6 *1089:A2 *99:31 5.66971e-05
7 *1089:A2 *355:78 2.8266e-06
*RES
1 *1080:Y *1089:A2 29.7786 
*END

*D_NET *97 0.00791483
*CONN
*I *1279:B1 I *D sky130_fd_sc_hd__a21oi_1
*I *1124:A1 I *D sky130_fd_sc_hd__o2111a_2
*I *1089:B1 I *D sky130_fd_sc_hd__a211o_1
*I *1081:Y O *D sky130_fd_sc_hd__inv_2
*CAP
1 *1279:B1 0
2 *1124:A1 0
3 *1089:B1 0.000699267
4 *1081:Y 0.000850344
5 *97:30 0.00169302
6 *97:14 0.0018441
7 *1089:B1 *1088:A1 0.000170597
8 *1089:B1 *1101:B1 0.000209175
9 *1089:B1 *1116:B1 2.29112e-05
10 *1089:B1 *1118:A2 0.000136744
11 *1089:B1 *1251:A1 5.74562e-05
12 *1089:B1 *1263:A 0.000148514
13 *1089:B1 *1276:A3 9.25014e-06
14 *1089:B1 *1276:B1 0.000132954
15 *1089:B1 *120:18 0.000283478
16 *1089:B1 *355:48 2.47956e-05
17 *1089:B1 *355:78 0.000210681
18 *1089:B1 *377:25 0
19 *97:14 *1333:CLK 0.000166616
20 *97:14 *256:339 0.000196458
21 *97:30 *1112:C 0.000139637
22 *97:30 *1113:A 2.05612e-05
23 *97:30 *1118:B1 7.71596e-05
24 *97:30 *1124:B1 4.6025e-06
25 *97:30 *1124:D1 7.30916e-05
26 *97:30 *1276:B1 6.0159e-05
27 *97:30 *1333:CLK 6.05161e-06
28 *97:30 *124:38 1.09163e-05
29 *97:30 *137:37 0
30 *97:30 *373:21 9.93955e-05
31 *97:30 *373:25 9.35794e-06
32 *30:10 *97:14 0.000300703
33 *30:58 *97:14 0.000256835
*RES
1 *1081:Y *97:14 33.4607 
2 *97:14 *97:30 23.1116 
3 *97:30 *1089:B1 36.1348 
4 *97:30 *1124:A1 9.3 
5 *97:14 *1279:B1 9.3 
*END

*D_NET *98 0.0114197
*CONN
*I *1116:A1 I *D sky130_fd_sc_hd__a2111oi_1
*I *1088:A1 I *D sky130_fd_sc_hd__a221o_1
*I *1104:A1 I *D sky130_fd_sc_hd__a2111o_1
*I *1258:B1 I *D sky130_fd_sc_hd__o21ai_1
*I *1257:A I *D sky130_fd_sc_hd__or3_1
*I *1101:A1 I *D sky130_fd_sc_hd__o21ai_1
*I *1108:A1 I *D sky130_fd_sc_hd__a2111o_2
*I *1092:A1 I *D sky130_fd_sc_hd__a221oi_2
*I *1105:A1 I *D sky130_fd_sc_hd__o21ai_1
*I *1082:Y O *D sky130_fd_sc_hd__inv_2
*CAP
1 *1116:A1 0.000130033
2 *1088:A1 0.000285131
3 *1104:A1 0
4 *1258:B1 0.000211861
5 *1257:A 0
6 *1101:A1 0
7 *1108:A1 9.76721e-05
8 *1092:A1 0.000820585
9 *1105:A1 0
10 *1082:Y 0.000457159
11 *98:105 0.000803535
12 *98:98 0.000511009
13 *98:72 0.000782134
14 *98:61 0.000852143
15 *98:18 0.000957035
16 *98:14 0.00051352
17 *98:12 0.000797057
18 *98:10 0.000815586
19 *1088:A1 *1084:A 0
20 *1088:A1 *1088:B2 2.81946e-05
21 *1088:A1 *1089:C1 2.79092e-05
22 *1088:A1 *355:48 3.75959e-05
23 *1092:A1 *1095:A1 4.45557e-05
24 *1092:A1 *1105:A2 1.81613e-05
25 *1092:A1 *1105:B1 3.42426e-05
26 *1092:A1 *1108:B1 4.23644e-06
27 *1092:A1 *1123:B1 2.30285e-05
28 *1092:A1 *1247:B 6.15526e-06
29 *1092:A1 *99:57 5.72546e-05
30 *1092:A1 *106:8 3.84349e-05
31 *1092:A1 *256:459 0
32 *1092:A1 *361:25 5.6647e-05
33 *1092:A1 *376:10 1.9774e-05
34 *1108:A1 *1108:C1 9.60939e-05
35 *1108:A1 *1347:CLK 9.90367e-05
36 *1108:A1 *256:451 1.82657e-05
37 *1116:A1 *1116:A2 0.000100165
38 *1116:A1 *1263:A 3.50746e-05
39 *1258:B1 *1259:C 4.74517e-05
40 *1258:B1 *1265:C1 8.16995e-05
41 *1258:B1 *127:60 7.27408e-05
42 *1258:B1 *139:27 0
43 *1258:B1 *219:19 2.18295e-05
44 *1258:B1 *247:8 5.62995e-05
45 *98:10 *102:28 5.23688e-05
46 *98:10 *118:12 0.000107644
47 *98:12 *1359:A 3.45899e-05
48 *98:14 *1108:B1 4.98055e-06
49 *98:14 *1108:D1 0.000317594
50 *98:14 *1347:CLK 0.000109707
51 *98:14 *1359:A 0.000102007
52 *98:14 *1425:A 0
53 *98:14 *1433:A 0
54 *98:18 *1108:B1 3.0285e-05
55 *98:18 *1247:A 0
56 *98:18 *126:48 0
57 *98:18 *376:10 0
58 *98:61 *1104:B1 6.25884e-05
59 *98:61 *120:18 6.05161e-06
60 *98:72 *1101:B1 0.000353952
61 *98:72 *1104:B1 3.42509e-05
62 *98:72 *1116:B1 1.10868e-05
63 *98:72 *1257:B 3.80613e-05
64 *98:72 *1259:C 3.69047e-06
65 *98:72 *120:18 0.000155931
66 *98:98 *367:23 0.000141734
67 *98:98 *367:32 5.65955e-05
68 *98:105 *1116:A2 0.000269514
69 *98:105 *367:32 0.000297116
70 *1089:A2 *1088:A1 0
71 *1089:B1 *1088:A1 0.000170597
*RES
1 *1082:Y *98:10 19.8893 
2 *98:10 *98:12 4.07143 
3 *98:12 *98:14 7.10714 
4 *98:14 *98:18 6.75 
5 *98:18 *1105:A1 9.3 
6 *98:18 *1092:A1 32.4607 
7 *98:14 *1108:A1 15.9964 
8 *98:12 *98:61 9.46429 
9 *98:61 *1101:A1 9.3 
10 *98:61 *98:72 11.7679 
11 *98:72 *1257:A 9.3 
12 *98:72 *1258:B1 23.175 
13 *98:10 *98:98 6.26786 
14 *98:98 *1104:A1 9.3 
15 *98:98 *98:105 5.46429 
16 *98:105 *1088:A1 24.4964 
17 *98:105 *1116:A1 11.925 
*END

*D_NET *99 0.0150634
*CONN
*I *1243:A1 I *D sky130_fd_sc_hd__mux2_1
*I *1265:A1 I *D sky130_fd_sc_hd__o211a_1
*I *1262:B I *D sky130_fd_sc_hd__nand2_1
*I *1085:A I *D sky130_fd_sc_hd__nand2_1
*I *1084:A I *D sky130_fd_sc_hd__or2_1
*I *1102:A I *D sky130_fd_sc_hd__xor2_1
*I *1106:A I *D sky130_fd_sc_hd__xor2_1
*I *1090:A I *D sky130_fd_sc_hd__inv_2
*I *1097:B I *D sky130_fd_sc_hd__xnor2_1
*I *1263:B I *D sky130_fd_sc_hd__or2_1
*I *1083:X O *D sky130_fd_sc_hd__clkbuf_4
*CAP
1 *1243:A1 0.000249227
2 *1265:A1 0
3 *1262:B 3.39906e-05
4 *1085:A 2.22847e-05
5 *1084:A 0.000182939
6 *1102:A 3.68446e-05
7 *1106:A 0.000143344
8 *1090:A 0
9 *1097:B 0.000677103
10 *1263:B 0.000143637
11 *1083:X 0
12 *99:57 0.00159511
13 *99:43 0.00143505
14 *99:41 0.000915182
15 *99:33 0.000785243
16 *99:31 0.000391682
17 *99:29 0.000493268
18 *99:14 0.000804246
19 *99:8 0.00141097
20 *99:4 0.00118713
21 *1084:A *1084:B 1.33343e-05
22 *1084:A *1085:B 3.84349e-05
23 *1084:A *1088:B2 0
24 *1084:A *119:20 2.34883e-05
25 *1097:B *1095:D1 0
26 *1097:B *1096:B 0
27 *1097:B *1098:B 0.000757033
28 *1097:B *1100:A2 1.32293e-05
29 *1097:B *1358:A 0
30 *1097:B *108:16 0.000178474
31 *1097:B *355:20 0.000166852
32 *1243:A1 *1366:A 0
33 *1243:A1 *1427:A 0
34 *1243:A1 *256:394 0
35 *1243:A1 *256:404 0
36 *1262:B *1262:A 3.99069e-05
37 *1262:B *105:16 1.40884e-05
38 *1263:B *1263:A 0.000143633
39 *99:8 *1083:A 9.97875e-06
40 *99:8 *1265:B1 1.32693e-05
41 *99:8 *1341:RESET_B 1.31213e-05
42 *99:8 *1342:CLK 5.20751e-05
43 *99:8 *247:36 9.93955e-05
44 *99:8 *256:327 1.28239e-05
45 *99:8 *256:331 1.93293e-05
46 *99:8 *256:394 2.00758e-05
47 *99:14 *1264:C1 0.000264533
48 *99:14 *1265:B1 2.86952e-05
49 *99:14 *1265:C1 2.59355e-05
50 *99:14 *102:28 2.11048e-05
51 *99:31 *1088:B2 2.07878e-05
52 *99:31 *1089:C1 4.23557e-05
53 *99:31 *1262:A 8.59371e-05
54 *99:31 *105:16 0.000100074
55 *99:31 *355:78 5.50052e-05
56 *99:33 *1085:B 0.000141734
57 *99:33 *1088:B2 4.85049e-06
58 *99:41 *1085:B 9.67754e-05
59 *99:41 *102:30 3.02892e-05
60 *99:41 *102:78 4.7659e-05
61 *99:43 *1108:C1 2.41865e-05
62 *99:43 *1217:A0 4.88537e-05
63 *99:43 *102:30 0.000279334
64 *99:43 *102:38 0.000118339
65 *99:43 *239:122 0
66 *99:43 *246:20 0.000103144
67 *99:43 *256:256 0
68 *99:57 *1105:A2 0.000125724
69 *99:57 *1108:C1 0.000222878
70 *99:57 *1225:A0 0
71 *99:57 *1274:B 0.000147682
72 *99:57 *1275:A 4.96701e-05
73 *99:57 *1346:CLK 0.000244266
74 *99:57 *102:38 0.000236875
75 *99:57 *108:16 5.50052e-05
76 *99:57 *126:40 0.000136733
77 *99:57 *239:18 0
78 *99:57 *239:50 0
79 *1088:A1 *1084:A 0
80 *1089:A2 *99:31 5.66971e-05
81 *1092:A1 *99:57 5.72546e-05
82 *1243:S *1243:A1 5.52302e-05
*RES
1 *1083:X *99:4 9.3 
2 *99:4 *99:8 11.8393 
3 *99:8 *99:14 10.6964 
4 *99:14 *1263:B 16.4964 
5 *99:14 *99:29 7.66071 
6 *99:29 *99:31 6.28571 
7 *99:31 *99:33 2.17857 
8 *99:33 *99:41 13.4643 
9 *99:41 *99:43 9.83929 
10 *99:43 *99:57 31.5893 
11 *99:57 *1097:B 34.2286 
12 *99:57 *1090:A 9.3 
13 *99:43 *1106:A 15.9786 
14 *99:41 *1102:A 14.3357 
15 *99:33 *1084:A 21.6214 
16 *99:31 *1085:A 9.72857 
17 *99:29 *1262:B 10.3089 
18 *99:8 *1265:A1 9.3 
19 *99:4 *1243:A1 22.3 
*END

*D_NET *100 0.000254006
*CONN
*I *1088:B1 I *D sky130_fd_sc_hd__a221o_1
*I *1084:X O *D sky130_fd_sc_hd__or2_1
*CAP
1 *1088:B1 0.000120562
2 *1084:X 0.000120562
3 *1088:B1 *1088:B2 1.28809e-05
*RES
1 *1084:X *1088:B1 20.3679 
*END

*D_NET *101 0.000352051
*CONN
*I *1088:B2 I *D sky130_fd_sc_hd__a221o_1
*I *1085:Y O *D sky130_fd_sc_hd__nand2_1
*CAP
1 *1088:B2 0.000137652
2 *1085:Y 0.000137652
3 *1088:B2 *1088:C1 1.00332e-05
4 *1084:A *1088:B2 0
5 *1088:A1 *1088:B2 2.81946e-05
6 *1088:B1 *1088:B2 1.28809e-05
7 *99:31 *1088:B2 2.07878e-05
8 *99:33 *1088:B2 4.85049e-06
*RES
1 *1085:Y *1088:B2 29.908 
*END

*D_NET *102 0.0135865
*CONN
*I *1245:A1 I *D sky130_fd_sc_hd__mux2_1
*I *1267:A I *D sky130_fd_sc_hd__or4_1
*I *1266:B1 I *D sky130_fd_sc_hd__o31ai_1
*I *1087:A I *D sky130_fd_sc_hd__xor2_1
*I *1103:A I *D sky130_fd_sc_hd__xor2_1
*I *1107:A I *D sky130_fd_sc_hd__xor2_1
*I *1094:A I *D sky130_fd_sc_hd__or2b_1
*I *1096:B I *D sky130_fd_sc_hd__xnor2_1
*I *1091:B I *D sky130_fd_sc_hd__and2b_1
*I *1086:X O *D sky130_fd_sc_hd__clkbuf_4
*CAP
1 *1245:A1 0.000279165
2 *1267:A 2.06112e-05
3 *1266:B1 0
4 *1087:A 0.000229418
5 *1103:A 3.72884e-05
6 *1107:A 0.000114035
7 *1094:A 5.08506e-05
8 *1096:B 0.000285197
9 *1091:B 0
10 *1086:X 0
11 *102:78 0.000499654
12 *102:49 0.00058312
13 *102:38 0.000931553
14 *102:30 0.00111282
15 *102:28 0.0015129
16 *102:18 0.00109745
17 *102:14 0.000735756
18 *102:4 0.000862506
19 *1087:A *1087:B 1.76039e-05
20 *1087:A *119:20 0
21 *1087:A *369:12 4.57538e-05
22 *1096:B *1095:D1 9.11048e-06
23 *1096:B *1233:A1 0
24 *1096:B *1358:A 0.00013801
25 *1107:A *1108:D1 4.88515e-05
26 *1107:A *239:122 0.000269428
27 *1245:A1 *1246:A 2.1768e-05
28 *1267:A *1267:D 3.99614e-06
29 *102:14 *1268:A2 9.90367e-05
30 *102:14 *247:64 6.05161e-06
31 *102:14 *247:68 0
32 *102:14 *256:315 0
33 *102:14 *256:327 4.72217e-05
34 *102:18 *1262:A 3.57366e-05
35 *102:18 *1267:C 1.4796e-05
36 *102:18 *1267:D 9.61075e-05
37 *102:18 *1268:A1 0.00010096
38 *102:18 *1268:A2 0.000232399
39 *102:18 *224:6 2.59355e-05
40 *102:18 *224:21 2.85321e-05
41 *102:28 *1082:A 5.46536e-05
42 *102:28 *1264:A1 0.000124012
43 *102:28 *1264:B1 2.85234e-05
44 *102:28 *1264:C1 1.62025e-05
45 *102:28 *1266:A1 0
46 *102:28 *105:16 1.12669e-05
47 *102:28 *118:12 0.000486684
48 *102:28 *355:59 0.000116003
49 *102:30 *1347:CLK 3.7246e-05
50 *102:38 *1092:B1 0
51 *102:38 *1092:C1 0
52 *102:38 *1105:A2 0.000125724
53 *102:38 *1346:CLK 0.000310991
54 *102:38 *1347:CLK 8.86261e-05
55 *102:38 *126:48 0.000771029
56 *102:38 *244:36 0.000485398
57 *102:38 *362:27 5.71472e-05
58 *102:49 *1095:A1 2.54486e-05
59 *102:49 *1095:B1 1.83053e-05
60 *102:49 *1095:D1 9.97164e-05
61 *102:49 *362:27 0.00027509
62 *102:78 *119:20 0
63 *1097:B *1096:B 0
64 *1245:S *1245:A1 7.48091e-05
65 *98:10 *102:28 5.23688e-05
66 *99:14 *102:28 2.11048e-05
67 *99:41 *102:30 3.02892e-05
68 *99:41 *102:78 4.7659e-05
69 *99:43 *102:30 0.000279334
70 *99:43 *102:38 0.000118339
71 *99:57 *102:38 0.000236875
*RES
1 *1086:X *102:4 9.3 
2 *102:4 *102:14 17.9464 
3 *102:14 *102:18 4.25 
4 *102:18 *102:28 31.0714 
5 *102:28 *102:30 7.71429 
6 *102:30 *102:38 25.7321 
7 *102:38 *1091:B 9.3 
8 *102:38 *102:49 9.66071 
9 *102:49 *1096:B 19.3893 
10 *102:49 *1094:A 14.3357 
11 *102:30 *1107:A 16.8 
12 *102:28 *102:78 4.375 
13 *102:78 *1103:A 14.3357 
14 *102:78 *1087:A 18.0143 
15 *102:18 *1266:B1 9.3 
16 *102:14 *1267:A 9.72857 
17 *102:4 *1245:A1 14.2643 
*END

*D_NET *103 0.00107655
*CONN
*I *1088:C1 I *D sky130_fd_sc_hd__a221o_1
*I *1087:X O *D sky130_fd_sc_hd__xor2_1
*CAP
1 *1088:C1 0.000533257
2 *1087:X 0.000533257
3 *1088:B2 *1088:C1 1.00332e-05
*RES
1 *1087:X *1088:C1 34.1893 
*END

*D_NET *104 0.000407758
*CONN
*I *1089:C1 I *D sky130_fd_sc_hd__a211o_1
*I *1088:X O *D sky130_fd_sc_hd__a221o_1
*CAP
1 *1089:C1 0.000125853
2 *1088:X 0.000125853
3 *1089:C1 *1262:A 4.54415e-05
4 *1089:C1 *355:78 1.24368e-05
5 *1088:A1 *1089:C1 2.79092e-05
6 *1089:A2 *1089:C1 2.79092e-05
7 *99:31 *1089:C1 4.23557e-05
*RES
1 *1088:X *1089:C1 30.4393 
*END

*D_NET *105 0.00355879
*CONN
*I *1109:A I *D sky130_fd_sc_hd__and4_1
*I *1115:A_N I *D sky130_fd_sc_hd__and4b_1
*I *1089:X O *D sky130_fd_sc_hd__a211o_1
*CAP
1 *1109:A 1.13798e-05
2 *1115:A_N 0
3 *1089:X 0.00089157
4 *105:16 0.000902949
5 *1109:A *1109:B 5.71472e-05
6 *1109:A *1109:C 2.89114e-05
7 *105:16 *1112:A_N 0
8 *105:16 *1256:B 0
9 *105:16 *1262:A 3.01245e-06
10 *105:16 *1264:A1 7.74068e-05
11 *105:16 *1264:A2 0.000121897
12 *105:16 *1264:B1 3.03858e-05
13 *105:16 *127:60 0
14 *105:16 *139:27 0
15 *105:16 *139:31 0.000244629
16 *105:16 *139:42 0.00014925
17 *105:16 *219:8 0.000128146
18 *105:16 *219:19 0.000237245
19 *105:16 *219:28 0.000161604
20 *105:16 *219:43 0.000182909
21 *105:16 *219:58 0.000112773
22 *105:16 *224:6 7.22574e-05
23 *105:16 *224:21 1.98839e-05
24 *1262:B *105:16 1.40884e-05
25 *99:31 *105:16 0.000100074
26 *102:28 *105:16 1.12669e-05
*RES
1 *1089:X *105:16 36.9786 
2 *105:16 *1115:A_N 9.3 
3 *105:16 *1109:A 9.83571 
*END

*D_NET *106 0.00106327
*CONN
*I *1092:B2 I *D sky130_fd_sc_hd__a221oi_2
*I *1095:A1 I *D sky130_fd_sc_hd__o2111a_1
*I *1090:Y O *D sky130_fd_sc_hd__inv_2
*CAP
1 *1092:B2 3.80696e-05
2 *1095:A1 0.000278732
3 *1090:Y 4.72237e-05
4 *106:8 0.000364026
5 *1095:A1 *1092:B1 5.7234e-05
6 *1095:A1 *1095:B1 3.75923e-05
7 *1095:A1 *1095:C1 7.70035e-05
8 *1095:A1 *362:27 5.49489e-05
9 *1092:A1 *1095:A1 4.45557e-05
10 *1092:A1 *106:8 3.84349e-05
11 *102:49 *1095:A1 2.54486e-05
*RES
1 *1090:Y *106:8 14.8357 
2 *106:8 *1095:A1 19.2286 
3 *106:8 *1092:B2 14.5321 
*END

*D_NET *107 0.000307509
*CONN
*I *1092:C1 I *D sky130_fd_sc_hd__a221oi_2
*I *1091:X O *D sky130_fd_sc_hd__and2b_1
*CAP
1 *1092:C1 0.000122051
2 *1091:X 0.000122051
3 *1092:C1 *1092:B1 4.06646e-05
4 *1092:C1 *362:27 2.27416e-05
5 *102:38 *1092:C1 0
*RES
1 *1091:X *1092:C1 29.7786 
*END

*D_NET *108 0.00309959
*CONN
*I *1122:A1 I *D sky130_fd_sc_hd__a21o_1
*I *1120:B I *D sky130_fd_sc_hd__nand3b_1
*I *1100:A1 I *D sky130_fd_sc_hd__a21oi_1
*I *1092:Y O *D sky130_fd_sc_hd__a221oi_2
*CAP
1 *1122:A1 9.17097e-05
2 *1120:B 6.66492e-05
3 *1100:A1 0
4 *1092:Y 0.000554978
5 *108:27 0.000286998
6 *108:16 0.000683617
7 *1120:B *1095:B1 8.64516e-06
8 *1120:B *1100:A2 3.4867e-05
9 *1120:B *111:14 0.000127439
10 *1120:B *115:40 7.57161e-05
11 *1122:A1 *1122:A2 0.000139344
12 *1122:A1 *1122:B1 2.38501e-05
13 *108:16 *1100:A2 5.49995e-05
14 *108:16 *129:52 5.49995e-05
15 *108:16 *361:25 1.28239e-05
16 *108:27 *1100:A2 0.000276464
17 *108:27 *1100:B1 0.000121413
18 *108:27 *115:40 2.72055e-05
19 *108:27 *116:16 7.80059e-05
20 *108:27 *129:52 0.000140243
21 *108:27 *355:20 6.14702e-06
22 *1097:B *108:16 0.000178474
23 *99:57 *108:16 5.50052e-05
*RES
1 *1092:Y *108:16 28.2107 
2 *108:16 *1100:A1 9.3 
3 *108:16 *108:27 9.32143 
4 *108:27 *1120:B 15.925 
5 *108:27 *1122:A1 15.5679 
*END

*D_NET *109 0.000790344
*CONN
*I *1095:C1 I *D sky130_fd_sc_hd__o2111a_1
*I *1093:X O *D sky130_fd_sc_hd__or2b_1
*CAP
1 *1095:C1 0.000231048
2 *1093:X 0.000231048
3 *1095:C1 *1093:A 2.2816e-05
4 *1095:C1 *361:25 0.000228429
5 *1095:A1 *1095:C1 7.70035e-05
*RES
1 *1093:X *1095:C1 31.225 
*END

*D_NET *110 0.00032048
*CONN
*I *1095:D1 I *D sky130_fd_sc_hd__o2111a_1
*I *1094:X O *D sky130_fd_sc_hd__or2b_1
*CAP
1 *1095:D1 0.000105827
2 *1094:X 0.000105827
3 *1096:B *1095:D1 9.11048e-06
4 *1097:B *1095:D1 0
5 *102:49 *1095:D1 9.97164e-05
*RES
1 *1094:X *1095:D1 29.5464 
*END

*D_NET *111 0.00222356
*CONN
*I *1120:C I *D sky130_fd_sc_hd__nand3b_1
*I *1100:A2 I *D sky130_fd_sc_hd__a21oi_1
*I *1122:A2 I *D sky130_fd_sc_hd__a21o_1
*I *1095:X O *D sky130_fd_sc_hd__o2111a_1
*CAP
1 *1120:C 0
2 *1100:A2 0.000196448
3 *1122:A2 0.00011795
4 *1095:X 0.000213528
5 *111:14 0.000368225
6 *111:10 0.000267354
7 *1100:A2 *1098:B 2.49168e-05
8 *1100:A2 *355:20 0.000116154
9 *1122:A2 *1122:B1 5.50052e-05
10 *111:10 *1095:B1 0.000119237
11 *111:10 *1120:A_N 2.84269e-05
12 *111:14 *1098:B 6.07232e-05
13 *111:14 *1120:A_N 9.25014e-06
14 *1097:B *1100:A2 1.32293e-05
15 *1120:B *1100:A2 3.4867e-05
16 *1120:B *111:14 0.000127439
17 *1122:A1 *1122:A2 0.000139344
18 *108:16 *1100:A2 5.49995e-05
19 *108:27 *1100:A2 0.000276464
*RES
1 *1095:X *111:10 13.5679 
2 *111:10 *111:14 6.14286 
3 *111:14 *1122:A2 16.3 
4 *111:14 *1100:A2 18.7464 
5 *111:10 *1120:C 9.3 
*END

*D_NET *112 0.00154809
*CONN
*I *1099:B I *D sky130_fd_sc_hd__and4_1
*I *1119:A I *D sky130_fd_sc_hd__nand3_1
*I *1096:Y O *D sky130_fd_sc_hd__xnor2_1
*CAP
1 *1099:B 7.34513e-05
2 *1119:A 0.000150723
3 *1096:Y 0.000360782
4 *112:12 0.000584956
5 *1099:B *1099:C 2.38501e-05
6 *1099:B *1099:D 4.25684e-05
7 *1099:B *374:12 3.18676e-05
8 *1119:A *1099:D 6.14702e-06
9 *1119:A *1119:B 8.09148e-05
10 *1119:A *115:10 0
11 *1119:A *134:12 0
12 *112:12 *1099:D 0.000140243
13 *112:12 *113:8 5.25858e-05
*RES
1 *1096:Y *112:12 15.6393 
2 *112:12 *1119:A 20.9786 
3 *112:12 *1099:B 11.0857 
*END

*D_NET *113 0.00110077
*CONN
*I *1099:C I *D sky130_fd_sc_hd__and4_1
*I *1119:B I *D sky130_fd_sc_hd__nand3_1
*I *1097:Y O *D sky130_fd_sc_hd__xnor2_1
*CAP
1 *1099:C 7.27173e-05
2 *1119:B 0.000104878
3 *1097:Y 7.3609e-05
4 *113:8 0.000251204
5 *1099:C *1099:D 0.000139344
6 *1099:C *115:10 4.25684e-05
7 *1119:B *1099:D 9.96487e-05
8 *1119:B *114:8 1.19813e-05
9 *113:8 *1099:D 5.33005e-05
10 *113:8 *115:10 9.41642e-05
11 *1099:B *1099:C 2.38501e-05
12 *1119:A *1119:B 8.09148e-05
13 *112:12 *113:8 5.25858e-05
*RES
1 *1097:Y *113:8 11.0857 
2 *113:8 *1119:B 20.6036 
3 *113:8 *1099:C 11.0679 
*END

*D_NET *114 0.000943115
*CONN
*I *1119:C I *D sky130_fd_sc_hd__nand3_1
*I *1099:D I *D sky130_fd_sc_hd__and4_1
*I *1098:Y O *D sky130_fd_sc_hd__xnor2_1
*CAP
1 *1119:C 0
2 *1099:D 0.000144935
3 *1098:Y 5.24206e-05
4 *114:8 0.000197356
5 *1099:D *115:10 5.51716e-05
6 *1099:B *1099:D 4.25684e-05
7 *1099:C *1099:D 0.000139344
8 *1119:A *1099:D 6.14702e-06
9 *1119:B *1099:D 9.96487e-05
10 *1119:B *114:8 1.19813e-05
11 *112:12 *1099:D 0.000140243
12 *113:8 *1099:D 5.33005e-05
*RES
1 *1098:Y *114:8 10.2643 
2 *114:8 *1099:D 22.0143 
3 *114:8 *1119:C 9.3 
*END

*D_NET *115 0.00376754
*CONN
*I *1100:B1 I *D sky130_fd_sc_hd__a21oi_1
*I *1122:B1 I *D sky130_fd_sc_hd__a21o_1
*I *1248:A1 I *D sky130_fd_sc_hd__o21ai_1
*I *1120:A_N I *D sky130_fd_sc_hd__nand3b_1
*I *1099:X O *D sky130_fd_sc_hd__and4_1
*CAP
1 *1100:B1 0.000167763
2 *1122:B1 0.000108234
3 *1248:A1 0.000118569
4 *1120:A_N 9.8585e-05
5 *1099:X 0.000400933
6 *115:40 0.000435565
7 *115:27 0.000337664
8 *115:10 0.000559044
9 *1100:B1 *116:16 0.000101583
10 *1100:B1 *129:52 3.97677e-05
11 *1120:A_N *1095:B1 1.38323e-05
12 *1120:A_N *1098:B 7.59202e-05
13 *1122:B1 *137:14 7.25873e-06
14 *1248:A1 *1095:B1 5.33005e-05
15 *1248:A1 *1121:A2 2.13202e-05
16 *1248:A1 *1124:C1 0.00022266
17 *1248:A1 *1248:A2 1.24368e-05
18 *1248:A1 *135:6 4.72917e-05
19 *1248:A1 *135:15 8.44442e-05
20 *115:10 *1098:B 0.00021871
21 *115:10 *1121:A1 0
22 *115:10 *374:12 0
23 *115:10 *375:12 2.6433e-05
24 *115:27 *375:12 5.17338e-05
25 *115:40 *1124:C1 0
26 *115:40 *375:12 3.17148e-05
27 *1099:C *115:10 4.25684e-05
28 *1099:D *115:10 5.51716e-05
29 *1119:A *115:10 0
30 *1120:B *115:40 7.57161e-05
31 *1122:A1 *1122:B1 2.38501e-05
32 *1122:A2 *1122:B1 5.50052e-05
33 *108:27 *1100:B1 0.000121413
34 *108:27 *115:40 2.72055e-05
35 *111:10 *1120:A_N 2.84269e-05
36 *111:14 *1120:A_N 9.25014e-06
37 *113:8 *115:10 9.41642e-05
*RES
1 *1099:X *115:10 22.6482 
2 *115:10 *1120:A_N 15.9875 
3 *115:10 *115:27 1.59821 
4 *115:27 *1248:A1 17.2286 
5 *115:27 *115:40 2.85714 
6 *115:40 *1122:B1 15.9964 
7 *115:40 *1100:B1 17.7107 
*END

*D_NET *116 0.00314371
*CONN
*I *1109:B I *D sky130_fd_sc_hd__and4_1
*I *1115:B I *D sky130_fd_sc_hd__and4b_1
*I *1118:A1 I *D sky130_fd_sc_hd__a31o_1
*I *1100:Y O *D sky130_fd_sc_hd__a21oi_1
*CAP
1 *1109:B 6.0487e-05
2 *1115:B 0
3 *1118:A1 0
4 *1100:Y 0.00040806
5 *116:29 0.0005164
6 *116:16 0.000863973
7 *1109:B *1109:C 9.24713e-05
8 *1109:B *1109:D 0.000294064
9 *116:16 *1118:A2 4.77002e-05
10 *116:16 *1251:A1 6.94441e-06
11 *116:16 *1273:B1 5.83485e-06
12 *116:16 *124:44 0
13 *116:16 *137:20 0.000195011
14 *116:16 *137:37 8.6229e-06
15 *116:29 *1112:A_N 0
16 *116:29 *1118:A2 5.66971e-05
17 *116:29 *1118:A3 5.49995e-05
18 *116:29 *1124:B1 1.21258e-05
19 *116:29 *1125:A2 0.000137422
20 *116:29 *1343:CLK 7.22686e-05
21 *116:29 *127:47 0
22 *116:29 *127:60 0
23 *116:29 *139:27 6.32633e-05
24 *1100:B1 *116:16 0.000101583
25 *1109:A *1109:B 5.71472e-05
26 *1343:D *116:29 1.06289e-05
27 *108:27 *116:16 7.80059e-05
*RES
1 *1100:Y *116:16 26.0143 
2 *116:16 *1118:A1 9.3 
3 *116:16 *116:29 17.8036 
4 *116:29 *1115:B 9.3 
5 *116:29 *1109:B 12.3179 
*END

*D_NET *117 0.00117993
*CONN
*I *1116:B1 I *D sky130_fd_sc_hd__a2111oi_1
*I *1104:B1 I *D sky130_fd_sc_hd__a2111o_1
*I *1101:Y O *D sky130_fd_sc_hd__o21ai_1
*CAP
1 *1116:B1 0.000167708
2 *1104:B1 0.000262004
3 *1101:Y 0
4 *117:4 0.000429712
5 *1104:B1 *1433:A 3.6337e-05
6 *1116:B1 *1101:B1 7.59183e-05
7 *1116:B1 *355:48 7.74135e-05
8 *1089:B1 *1116:B1 2.29112e-05
9 *98:61 *1104:B1 6.25884e-05
10 *98:72 *1104:B1 3.42509e-05
11 *98:72 *1116:B1 1.10868e-05
*RES
1 *1101:Y *117:4 9.3 
2 *117:4 *1104:B1 21.925 
3 *117:4 *1116:B1 21.1036 
*END

*D_NET *118 0.00205617
*CONN
*I *1116:C1 I *D sky130_fd_sc_hd__a2111oi_1
*I *1104:C1 I *D sky130_fd_sc_hd__a2111o_1
*I *1102:X O *D sky130_fd_sc_hd__xor2_1
*CAP
1 *1116:C1 8.16526e-05
2 *1104:C1 0
3 *1102:X 0.000251076
4 *118:12 0.000332728
5 *1116:C1 *1116:A2 0.000171041
6 *1116:C1 *1116:D1 6.72124e-05
7 *1116:C1 *1433:A 0.000182605
8 *1116:C1 *367:32 0.000183556
9 *118:12 *119:20 0.000191969
10 *98:10 *118:12 0.000107644
11 *102:28 *118:12 0.000486684
*RES
1 *1102:X *118:12 25.4964 
2 *118:12 *1104:C1 9.3 
3 *118:12 *1116:C1 12.7107 
*END

*D_NET *119 0.00242668
*CONN
*I *1116:D1 I *D sky130_fd_sc_hd__a2111oi_1
*I *1104:D1 I *D sky130_fd_sc_hd__a2111o_1
*I *1103:X O *D sky130_fd_sc_hd__xor2_1
*CAP
1 *1116:D1 0.000141738
2 *1104:D1 5.30275e-05
3 *1103:X 0.000670702
4 *119:20 0.000865467
5 *1116:D1 *1433:A 0.000182605
6 *1116:D1 *120:18 5.33005e-05
7 *119:20 *1085:B 0.000127246
8 *119:20 *1433:A 2.72088e-05
9 *119:20 *371:12 2.27129e-05
10 *1084:A *119:20 2.34883e-05
11 *1087:A *119:20 0
12 *1116:C1 *1116:D1 6.72124e-05
13 *102:78 *119:20 0
14 *118:12 *119:20 0.000191969
*RES
1 *1103:X *119:20 30.6393 
2 *119:20 *1104:D1 10.2643 
3 *119:20 *1116:D1 12.7286 
*END

*D_NET *120 0.0056602
*CONN
*I *1109:C I *D sky130_fd_sc_hd__and4_1
*I *1115:C I *D sky130_fd_sc_hd__and4b_1
*I *1251:A1 I *D sky130_fd_sc_hd__a21oi_1
*I *1104:X O *D sky130_fd_sc_hd__a2111o_1
*CAP
1 *1109:C 0.000270803
2 *1115:C 0
3 *1251:A1 0.000358907
4 *1104:X 0.000545389
5 *120:37 0.000561006
6 *120:18 0.0011945
7 *1109:C *1109:D 2.86694e-05
8 *1251:A1 *1118:A2 0
9 *1251:A1 *1251:A2 4.83019e-06
10 *1251:A1 *1273:A3 7.58841e-05
11 *1251:A1 *1276:A3 8.78238e-05
12 *1251:A1 *137:20 6.19764e-05
13 *1251:A1 *137:37 7.25413e-05
14 *1251:A1 *355:20 0.000233893
15 *1251:A1 *355:48 0.000379552
16 *120:18 *1101:A2 9.91224e-05
17 *120:18 *1433:A 9.87199e-05
18 *120:18 *355:48 0.000523048
19 *120:37 *1109:D 3.43147e-05
20 *120:37 *1115:D 1.42392e-06
21 *120:37 *124:34 0.000197176
22 *120:37 *124:81 0.000100223
23 *120:37 *377:8 4.58517e-05
24 *1089:B1 *1251:A1 5.74562e-05
25 *1089:B1 *120:18 0.000283478
26 *1109:A *1109:C 2.89114e-05
27 *1109:B *1109:C 9.24713e-05
28 *1116:D1 *120:18 5.33005e-05
29 *98:61 *120:18 6.05161e-06
30 *98:72 *120:18 0.000155931
31 *116:16 *1251:A1 6.94441e-06
*RES
1 *1104:X *120:18 35.6929 
2 *120:18 *1251:A1 22.3536 
3 *120:18 *120:37 10.9286 
4 *120:37 *1115:C 9.3 
5 *120:37 *1109:C 13.5679 
*END

*D_NET *121 0.000793205
*CONN
*I *1108:B1 I *D sky130_fd_sc_hd__a2111o_2
*I *1105:Y O *D sky130_fd_sc_hd__o21ai_1
*CAP
1 *1108:B1 0.000216538
2 *1105:Y 0.000216538
3 *1108:B1 *1105:A2 0.000185367
4 *1108:B1 *1347:CLK 1.02504e-05
5 *1108:B1 *126:48 0.00012501
6 *1092:A1 *1108:B1 4.23644e-06
7 *98:14 *1108:B1 4.98055e-06
8 *98:18 *1108:B1 3.0285e-05
*RES
1 *1105:Y *1108:B1 31.4214 
*END

*D_NET *122 0.00114898
*CONN
*I *1108:C1 I *D sky130_fd_sc_hd__a2111o_2
*I *1106:X O *D sky130_fd_sc_hd__xor2_1
*CAP
1 *1108:C1 0.000375918
2 *1106:X 0.000375918
3 *1108:C1 *239:50 0
4 *1108:C1 *256:451 5.20359e-06
5 *1108:C1 *364:23 4.87854e-05
6 *1108:A1 *1108:C1 9.60939e-05
7 *99:43 *1108:C1 2.41865e-05
8 *99:57 *1108:C1 0.000222878
*RES
1 *1106:X *1108:C1 33.7786 
*END

*D_NET *123 0.00139734
*CONN
*I *1108:D1 I *D sky130_fd_sc_hd__a2111o_2
*I *1107:X O *D sky130_fd_sc_hd__xor2_1
*CAP
1 *1108:D1 0.000335131
2 *1107:X 0.000335131
3 *1108:D1 *1347:CLK 0.000317594
4 *1108:D1 *239:122 4.30382e-05
5 *1107:A *1108:D1 4.88515e-05
6 *98:14 *1108:D1 0.000317594
*RES
1 *1107:X *1108:D1 34.6714 
*END

*D_NET *124 0.00712869
*CONN
*I *1109:D I *D sky130_fd_sc_hd__and4_1
*I *1115:D I *D sky130_fd_sc_hd__and4b_1
*I *1118:A3 I *D sky130_fd_sc_hd__a31o_1
*I *1273:A3 I *D sky130_fd_sc_hd__o31a_1
*I *1251:A2 I *D sky130_fd_sc_hd__a21oi_1
*I *1247:B I *D sky130_fd_sc_hd__nand2_1
*I *1123:A2 I *D sky130_fd_sc_hd__o21ai_1
*I *1108:X O *D sky130_fd_sc_hd__a2111o_2
*CAP
1 *1109:D 0.000115992
2 *1115:D 1.8464e-05
3 *1118:A3 1.42517e-05
4 *1273:A3 0.000178218
5 *1251:A2 9.25043e-05
6 *1247:B 0.000244421
7 *1123:A2 0
8 *1108:X 0.000324943
9 *124:81 0.000192585
10 *124:44 0.000632502
11 *124:38 0.000565712
12 *124:34 0.00075242
13 *124:14 0.000323459
14 *124:6 0.00090859
15 *1109:D *125:8 2.51343e-06
16 *1109:D *130:23 0.000443347
17 *1118:A3 *1124:B1 2.85234e-05
18 *1247:B *1124:D1 3.14219e-05
19 *1247:B *1247:A 3.0013e-05
20 *1247:B *213:14 2.66851e-07
21 *1251:A2 *216:18 2.04681e-05
22 *1273:A3 *1273:A1 1.24368e-05
23 *1273:A3 *1273:A2 0.000108306
24 *1273:A3 *1273:B1 2.69219e-05
25 *1273:A3 *137:20 7.58841e-05
26 *124:6 *1347:CLK 0.0001474
27 *124:6 *256:451 1.05936e-05
28 *124:14 *1124:D1 5.65955e-05
29 *124:14 *1247:A 4.6361e-05
30 *124:14 *256:459 9.97164e-05
31 *124:34 *1347:RESET_B 1.20582e-05
32 *124:38 *1118:B1 0
33 *124:38 *1124:A2 3.69697e-05
34 *124:38 *1124:B1 0.000122442
35 *124:38 *1124:C1 0.000143709
36 *124:38 *1125:A2 0
37 *124:38 *1248:A2 5.58875e-06
38 *124:38 *1276:B1 0.000123295
39 *124:44 *1124:C1 0.000143464
40 *124:44 *137:20 8.25843e-06
41 *124:44 *216:18 9.94988e-05
42 *124:81 *130:23 8.60155e-05
43 *1092:A1 *1247:B 6.15526e-06
44 *1109:B *1109:D 0.000294064
45 *1109:C *1109:D 2.86694e-05
46 *1251:A1 *1251:A2 4.83019e-06
47 *1251:A1 *1273:A3 7.58841e-05
48 *1347:D *124:6 1.28171e-05
49 *1347:D *124:34 2.10824e-05
50 *97:30 *124:38 1.09163e-05
51 *116:16 *124:44 0
52 *116:29 *1118:A3 5.49995e-05
53 *120:37 *1109:D 3.43147e-05
54 *120:37 *1115:D 1.42392e-06
55 *120:37 *124:34 0.000197176
56 *120:37 *124:81 0.000100223
*RES
1 *1108:X *124:6 13.5321 
2 *124:6 *124:14 10.875 
3 *124:14 *1123:A2 9.3 
4 *124:14 *1247:B 12.9429 
5 *124:6 *124:34 6.30357 
6 *124:34 *124:38 8.875 
7 *124:38 *124:44 9.85714 
8 *124:44 *1251:A2 10.8714 
9 *124:44 *1273:A3 21.9607 
10 *124:38 *1118:A3 14.3357 
11 *124:34 *124:81 1.65625 
12 *124:81 *1115:D 9.72857 
13 *124:81 *1109:D 14.3759 
*END

*D_NET *125 0.00104748
*CONN
*I *1256:B I *D sky130_fd_sc_hd__nand2_2
*I *1112:A_N I *D sky130_fd_sc_hd__and3b_1
*I *1109:X O *D sky130_fd_sc_hd__and4_1
*CAP
1 *1256:B 8.13238e-05
2 *1112:A_N 0.000188345
3 *1109:X 8.84149e-05
4 *125:8 0.000358084
5 *1112:A_N *127:60 0.000197977
6 *1112:A_N *139:27 0
7 *1112:A_N *373:21 0
8 *1256:B *127:60 0.000123295
9 *125:8 *130:23 7.53109e-06
10 *1109:D *125:8 2.51343e-06
11 *105:16 *1112:A_N 0
12 *105:16 *1256:B 0
13 *116:29 *1112:A_N 0
*RES
1 *1109:X *125:8 14.7464 
2 *125:8 *1112:A_N 17.0857 
3 *125:8 *1256:B 15.4429 
*END

*D_NET *126 0.0344052
*CONN
*I *1219:S I *D sky130_fd_sc_hd__mux2_1
*I *1217:S I *D sky130_fd_sc_hd__mux2_1
*I *1213:S I *D sky130_fd_sc_hd__mux2_1
*I *1268:B1 I *D sky130_fd_sc_hd__a21oi_1
*I *1211:S I *D sky130_fd_sc_hd__mux2_1
*I *1215:S I *D sky130_fd_sc_hd__mux2_1
*I *1221:S I *D sky130_fd_sc_hd__mux2_1
*I *1227:S I *D sky130_fd_sc_hd__mux2_1
*I *1223:S I *D sky130_fd_sc_hd__mux2_1
*I *1233:S I *D sky130_fd_sc_hd__mux2_1
*I *1237:S I *D sky130_fd_sc_hd__mux2_1
*I *1235:S I *D sky130_fd_sc_hd__mux2_1
*I *1239:S I *D sky130_fd_sc_hd__mux2_1
*I *1225:S I *D sky130_fd_sc_hd__mux2_1
*I *1274:A I *D sky130_fd_sc_hd__or2_1
*I *1277:A I *D sky130_fd_sc_hd__or2_1
*I *1280:A I *D sky130_fd_sc_hd__or2_1
*I *1111:A I *D sky130_fd_sc_hd__inv_2
*I *1229:S I *D sky130_fd_sc_hd__mux2_1
*I *1231:S I *D sky130_fd_sc_hd__mux2_1
*I *1110:X O *D sky130_fd_sc_hd__buf_6
*CAP
1 *1219:S 0.000549459
2 *1217:S 7.12843e-05
3 *1213:S 0
4 *1268:B1 0.000585244
5 *1211:S 2.774e-05
6 *1215:S 0
7 *1221:S 0
8 *1227:S 0
9 *1223:S 9.28487e-05
10 *1233:S 0.000299508
11 *1237:S 3.46071e-05
12 *1235:S 0.000461107
13 *1239:S 6.7871e-05
14 *1225:S 0.000148276
15 *1274:A 0
16 *1277:A 0
17 *1280:A 2.65071e-05
18 *1111:A 0.000780943
19 *1229:S 0
20 *1231:S 0
21 *1110:X 0.000356031
22 *126:233 0.00141563
23 *126:223 0.000994589
24 *126:216 0.000503589
25 *126:203 0.000521249
26 *126:199 0.000953004
27 *126:184 0.000716488
28 *126:180 0.00111264
29 *126:169 0.00118004
30 *126:130 0.000738236
31 *126:117 0.000621868
32 *126:115 0.00116065
33 *126:64 0.00205112
34 *126:48 0.00203437
35 *126:40 0.00118839
36 *126:36 0.000792332
37 *126:32 0.000819857
38 *126:25 0.000593447
39 *126:12 0.000569621
40 *126:10 0.000924413
41 *1111:A *1254:A1 5.86821e-06
42 *1111:A *1280:B 7.85137e-05
43 *1111:A *1333:CLK 0.000170301
44 *1111:A *127:10 5.50052e-05
45 *1111:A *130:23 1.59827e-05
46 *1111:A *245:69 0.00043772
47 *1211:S *1211:A0 5.52302e-05
48 *1217:S *1102:B 2.38501e-05
49 *1217:S *1217:A0 0.000100165
50 *1217:S *1217:A1 0.000139337
51 *1219:S *1132:A1 1.32693e-05
52 *1219:S *1205:A0 7.51484e-05
53 *1219:S *1207:A0 3.87671e-05
54 *1219:S *1220:A 7.74068e-05
55 *1219:S *256:150 3.49506e-05
56 *1219:S *325:88 0.000102837
57 *1223:S *1223:A0 9.99853e-05
58 *1223:S *1223:A1 6.93048e-05
59 *1233:S *1233:A0 0.000117621
60 *1233:S *1380:A 2.65105e-05
61 *1233:S *363:8 5.71472e-05
62 *1235:S *1160:A0 0.00019018
63 *1235:S *1235:A1 0.000330936
64 *1235:S *1330:RESET_B 0.000173716
65 *1235:S *1331:CLK 7.32272e-05
66 *1235:S *1364:A 9.15842e-06
67 *1235:S *1373:A 4.85984e-05
68 *1235:S *359:12 0.000230155
69 *1237:S *1237:A1 5.46383e-06
70 *1239:S *275:14 0.000185403
71 *1268:B1 *1211:A0 0.000217141
72 *1268:B1 *1268:A2 1.41706e-05
73 *1268:B1 *256:315 0
74 *1268:B1 *370:12 0.000228558
75 *1268:B1 *370:25 0
76 *1280:A *1281:A 2.84109e-05
77 *126:10 *1181:S 0.000387417
78 *126:10 *1182:A 0.000269225
79 *126:10 *162:55 0.000213327
80 *126:10 *256:627 3.73361e-05
81 *126:10 *256:639 0
82 *126:10 *326:76 7.73184e-05
83 *126:25 *1229:A1 0.000322472
84 *126:25 *1231:A0 5.018e-05
85 *126:25 *1232:A 0.000140907
86 *126:25 *361:25 5.33433e-05
87 *126:32 *361:25 1.74352e-05
88 *126:36 *361:12 3.87671e-05
89 *126:40 *1275:A 4.45572e-05
90 *126:48 *1347:CLK 8.66228e-05
91 *126:48 *1425:A 0.000269378
92 *126:48 *376:10 0
93 *126:64 *1101:B1 0.000186662
94 *126:64 *1118:A2 0.000139907
95 *126:64 *1118:B1 9.90431e-05
96 *126:64 *1256:A 0.000230349
97 *126:64 *1281:A 7.54868e-05
98 *126:64 *1348:CLK 3.04311e-05
99 *126:64 *1425:A 6.08611e-05
100 *126:115 *1332:RESET_B 0
101 *126:115 *1380:A 0.000304996
102 *126:115 *244:10 0
103 *126:115 *244:36 0
104 *126:115 *361:25 0.000133027
105 *126:115 *363:12 0
106 *126:117 *1332:RESET_B 0
107 *126:117 *244:10 0
108 *126:130 *1364:A 0.000139499
109 *126:169 *162:55 0.000173614
110 *126:169 *256:170 0
111 *126:169 *256:184 0
112 *126:180 *1325:CLK 0
113 *126:180 *1374:A 3.9733e-05
114 *126:180 *1391:A 0.000125731
115 *126:180 *243:62 0
116 *126:180 *256:168 0
117 *126:180 *256:170 0
118 *126:180 *325:88 9.61008e-05
119 *126:184 *1227:A1 5.22622e-05
120 *126:199 *1205:A0 0.00026974
121 *126:199 *1217:A1 0.000215641
122 *126:199 *1218:A 0.000315812
123 *126:199 *1227:A0 0.000264236
124 *126:199 *1227:A1 4.73286e-05
125 *126:199 *246:26 0.000148514
126 *126:203 *1102:B 0
127 *126:203 *1221:A1 1.02504e-05
128 *126:203 *246:26 0
129 *126:203 *256:263 0.000243222
130 *126:203 *256:273 0.000166276
131 *126:216 *1134:A0 3.44274e-05
132 *126:216 *1215:A0 9.75679e-05
133 *126:216 *1215:A1 0.000137639
134 *126:216 *1221:A1 0.000117896
135 *126:216 *1387:A 0
136 *126:216 *1392:A 0
137 *126:216 *246:45 0
138 *126:216 *256:273 0.000229443
139 *126:216 *256:280 0.000327014
140 *126:223 *1215:A0 0.000489677
141 *126:223 *1318:CLK 2.24804e-05
142 *126:233 *1213:A0 7.68058e-05
143 *126:233 *1318:CLK 6.22854e-05
144 *126:233 *256:315 0.000126439
145 *126:233 *370:12 0
146 *1108:B1 *126:48 0.00012501
147 *1318:D *126:233 0.000101859
148 *1324:D *126:169 4.89267e-05
149 *1331:D *1235:S 0
150 *30:10 *1111:A 0
151 *30:12 *1111:A 0
152 *98:18 *126:48 0
153 *99:57 *126:40 0.000136733
154 *102:38 *126:48 0.000771029
*RES
1 *1110:X *126:10 24.5857 
2 *126:10 *126:12 4.5 
3 *126:12 *1231:S 9.3 
4 *126:12 *126:25 11.375 
5 *126:25 *1229:S 9.3 
6 *126:25 *126:32 0.535714 
7 *126:32 *126:36 8.875 
8 *126:36 *126:40 11.1964 
9 *126:40 *126:48 25.9464 
10 *126:48 *126:64 23.4107 
11 *126:64 *1111:A 28.4071 
12 *126:64 *1280:A 14.3357 
13 *126:48 *1277:A 9.3 
14 *126:40 *1274:A 9.3 
15 *126:36 *1225:S 16.6571 
16 *126:32 *126:115 16.2857 
17 *126:115 *126:117 4.98214 
18 *126:117 *1239:S 15.5679 
19 *126:117 *126:130 4.91071 
20 *126:130 *1235:S 25.4071 
21 *126:130 *1237:S 14.5321 
22 *126:115 *1233:S 19.3 
23 *126:10 *126:169 10.5 
24 *126:169 *1223:S 15.9786 
25 *126:169 *126:180 9.83929 
26 *126:180 *126:184 5.44643 
27 *126:184 *1227:S 9.3 
28 *126:184 *126:199 24.1964 
29 *126:199 *126:203 9.78571 
30 *126:203 *1221:S 13.8 
31 *126:203 *126:216 13.375 
32 *126:216 *1215:S 9.3 
33 *126:216 *126:223 5.05357 
34 *126:223 *126:233 20.125 
35 *126:233 *1211:S 9.83571 
36 *126:233 *1268:B1 29.7643 
37 *126:223 *1213:S 9.3 
38 *126:199 *1217:S 11.4964 
39 *126:180 *1219:S 23.2107 
*END

*D_NET *127 0.00682506
*CONN
*I *1259:A I *D sky130_fd_sc_hd__and3_1
*I *1265:C1 I *D sky130_fd_sc_hd__o211a_1
*I *1112:C I *D sky130_fd_sc_hd__and3b_1
*I *1125:B1 I *D sky130_fd_sc_hd__o21ai_1
*I *1272:A I *D sky130_fd_sc_hd__nand2_1
*I *1270:A I *D sky130_fd_sc_hd__nand2_1
*I *1111:Y O *D sky130_fd_sc_hd__inv_2
*CAP
1 *1259:A 0
2 *1265:C1 0.000287767
3 *1112:C 9.9726e-05
4 *1125:B1 0.000125892
5 *1272:A 7.47312e-05
6 *1270:A 0.00019114
7 *1111:Y 0
8 *127:60 0.000749029
9 *127:47 0.000693644
10 *127:34 0.000389557
11 *127:10 0.000625853
12 *127:4 0.00049099
13 *1125:B1 *1114:A 1.24368e-05
14 *1125:B1 *1125:A2 0.000100165
15 *1125:B1 *129:6 9.84673e-05
16 *1125:B1 *129:14 0.000143633
17 *1125:B1 *216:18 8.43535e-06
18 *1265:C1 *1259:B 1.29901e-05
19 *1265:C1 *1259:C 0.000139338
20 *1265:C1 *1265:A2 5.92441e-05
21 *1265:C1 *1265:B1 5.33005e-05
22 *1265:C1 *139:61 0.000169095
23 *1265:C1 *219:19 1.90223e-05
24 *1265:C1 *219:28 8.7392e-05
25 *1265:C1 *219:43 2.2918e-05
26 *1270:A *1269:A1 0
27 *1270:A *1269:B1 0
28 *1270:A *1344:RESET_B 4.46186e-06
29 *1270:A *1405:A 3.69697e-05
30 *1270:A *256:480 0.000113877
31 *1270:A *375:12 2.27416e-05
32 *1272:A *1272:B 0.000270653
33 *1272:A *1405:A 6.62983e-05
34 *127:10 *129:16 0
35 *127:10 *256:480 0.000227852
36 *127:34 *1114:A 4.06796e-05
37 *127:34 *256:480 0.000193004
38 *127:47 *1114:A 0.000132247
39 *127:47 *256:480 0.000150393
40 *127:60 *1114:A 7.0758e-05
41 *127:60 *1256:A 0.000144069
42 *127:60 *1281:A 0
43 *127:60 *1348:CLK 0
44 *127:60 *219:8 0
45 *127:60 *219:19 0
46 *127:60 *247:21 0
47 *1111:A *127:10 5.50052e-05
48 *1112:A_N *127:60 0.000197977
49 *1256:B *127:60 0.000123295
50 *1258:B1 *1265:C1 8.16995e-05
51 *1258:B1 *127:60 7.27408e-05
52 *97:30 *1112:C 0.000139637
53 *99:14 *1265:C1 2.59355e-05
54 *105:16 *127:60 0
55 *116:29 *127:47 0
56 *116:29 *127:60 0
*RES
1 *1111:Y *127:4 9.3 
2 *127:4 *127:10 11.4464 
3 *127:10 *1270:A 18.0143 
4 *127:10 *1272:A 16.3893 
5 *127:4 *127:34 7.05357 
6 *127:34 *1125:B1 17.1214 
7 *127:34 *127:47 3.46429 
8 *127:47 *1112:C 15.1571 
9 *127:47 *127:60 14.6429 
10 *127:60 *1265:C1 25.4786 
11 *127:60 *1259:A 9.3 
*END

*D_NET *128 0.00104872
*CONN
*I *1113:A I *D sky130_fd_sc_hd__buf_2
*I *1112:X O *D sky130_fd_sc_hd__and3b_1
*CAP
1 *1113:A 0.000352351
2 *1112:X 0.000352351
3 *1113:A *1333:CLK 0.000225988
4 *1113:A *373:21 9.74665e-05
5 *97:30 *1113:A 2.05612e-05
*RES
1 *1112:X *1113:A 33.7964 
*END

*D_NET *129 0.00495717
*CONN
*I *1125:A1 I *D sky130_fd_sc_hd__o21ai_1
*I *1276:A1 I *D sky130_fd_sc_hd__o31a_1
*I *1273:A1 I *D sky130_fd_sc_hd__o31a_1
*I *1271:A1 I *D sky130_fd_sc_hd__o21ai_1
*I *1269:A1 I *D sky130_fd_sc_hd__o21ai_1
*I *1114:Y O *D sky130_fd_sc_hd__inv_2
*CAP
1 *1125:A1 0
2 *1276:A1 7.75792e-05
3 *1273:A1 2.9861e-05
4 *1271:A1 1.59435e-05
5 *1269:A1 0.0002838
6 *1114:Y 1.93193e-05
7 *129:52 0.000864466
8 *129:16 0.000586977
9 *129:14 0.00119699
10 *129:6 0.000172054
11 *1269:A1 *1121:A2 2.97021e-05
12 *1269:A1 *1248:A2 0
13 *1269:A1 *1405:A 0
14 *1269:A1 *375:12 9.90367e-05
15 *1271:A1 *1249:A1 7.77116e-06
16 *1271:A1 *1271:A2 9.97677e-06
17 *1271:A1 *135:15 2.7547e-05
18 *1273:A1 *1273:B1 2.59355e-05
19 *1276:A1 *256:459 0.000117867
20 *1276:A1 *256:465 1.94879e-05
21 *1276:A1 *355:48 0.000167018
22 *129:6 *216:18 4.51148e-05
23 *129:14 *1125:A2 7.15503e-05
24 *129:14 *216:18 0.000182857
25 *129:16 *1248:A2 0
26 *129:52 *1274:B 7.70035e-05
27 *129:52 *355:20 0.000305519
28 *129:52 *355:48 3.42401e-05
29 *1100:B1 *129:52 3.97677e-05
30 *1125:B1 *129:6 9.84673e-05
31 *1125:B1 *129:14 0.000143633
32 *1270:A *1269:A1 0
33 *1273:A3 *1273:A1 1.24368e-05
34 *108:16 *129:52 5.49995e-05
35 *108:27 *129:52 0.000140243
36 *127:10 *129:16 0
*RES
1 *1114:Y *129:6 10.2464 
2 *129:6 *129:14 8.85714 
3 *129:14 *129:16 5.28571 
4 *129:16 *1269:A1 18.6929 
5 *129:16 *1271:A1 14.2598 
6 *129:14 *129:52 20.4821 
7 *129:52 *1273:A1 14.3357 
8 *129:52 *1276:A1 16.05 
9 *129:6 *1125:A1 9.3 
*END

*D_NET *130 0.0053545
*CONN
*I *1254:A1 I *D sky130_fd_sc_hd__mux2_1
*I *1279:A2 I *D sky130_fd_sc_hd__a21oi_1
*I *1124:A2 I *D sky130_fd_sc_hd__o2111a_2
*I *1115:X O *D sky130_fd_sc_hd__and4b_1
*CAP
1 *1254:A1 0.000752564
2 *1279:A2 0.000107406
3 *1124:A2 0.000178182
4 *1115:X 0
5 *130:23 0.00163186
6 *130:4 0.000950076
7 *1124:A2 *1124:D1 6.87574e-05
8 *1124:A2 *1125:A2 4.46186e-06
9 *1124:A2 *1276:B1 5.52238e-05
10 *1124:A2 *139:27 3.25078e-05
11 *1254:A1 *1114:A 0
12 *1254:A1 *1254:A0 5.66971e-05
13 *1254:A1 *1255:A 5.018e-05
14 *1254:A1 *1333:CLK 0.000162844
15 *1254:A1 *245:52 0
16 *1254:A1 *245:69 0.000401684
17 *1254:A1 *373:10 0.000124869
18 *1279:A2 *373:10 1.00332e-05
19 *130:23 *1280:B 7.29646e-05
20 *1109:D *130:23 0.000443347
21 *1111:A *1254:A1 5.86821e-06
22 *1111:A *130:23 1.59827e-05
23 *1254:S *1254:A1 9.84729e-05
24 *124:38 *1124:A2 3.69697e-05
25 *124:81 *130:23 8.60155e-05
26 *125:8 *130:23 7.53109e-06
*RES
1 *1115:X *130:4 9.3 
2 *130:4 *1124:A2 21.1036 
3 *130:4 *130:23 14.7411 
4 *130:23 *1279:A2 15.3268 
5 *130:23 *1254:A1 29.5589 
*END

*D_NET *131 0.00212158
*CONN
*I *1433:A I *D sky130_fd_sc_hd__clkbuf_1
*I *1116:Y O *D sky130_fd_sc_hd__a2111oi_1
*CAP
1 *1433:A 0.000515844
2 *1116:Y 0.000515844
3 *1433:A *1101:A2 1.2294e-05
4 *1433:A *1278:A 2.6949e-05
5 *1433:A *1347:CLK 7.49267e-05
6 *1433:A *1425:A 0.000146474
7 *1433:A *256:451 0.000139202
8 *1433:A *355:48 0
9 *1104:B1 *1433:A 3.6337e-05
10 *1116:C1 *1433:A 0.000182605
11 *1116:D1 *1433:A 0.000182605
12 *1347:D *1433:A 0.000162565
13 *98:14 *1433:A 0
14 *119:20 *1433:A 2.72088e-05
15 *120:18 *1433:A 9.87199e-05
*RES
1 *1116:Y *1433:A 40.3857 
*END

*D_NET *132 0.00142646
*CONN
*I *1118:B1 I *D sky130_fd_sc_hd__a31o_1
*I *1117:Y O *D sky130_fd_sc_hd__inv_2
*CAP
1 *1118:B1 0.000310818
2 *1117:Y 0.000310818
3 *1118:B1 *1118:A2 0.000495967
4 *1118:B1 *1124:B1 3.82431e-05
5 *1118:B1 *1276:B1 6.66939e-05
6 *1118:B1 *137:37 6.18969e-06
7 *1118:B1 *377:25 2.1527e-05
8 *97:30 *1118:B1 7.71596e-05
9 *124:38 *1118:B1 0
10 *126:64 *1118:B1 9.90431e-05
*RES
1 *1117:Y *1118:B1 35.35 
*END

*D_NET *133 0.000479916
*CONN
*I *1124:B1 I *D sky130_fd_sc_hd__o2111a_2
*I *1118:X O *D sky130_fd_sc_hd__a31o_1
*CAP
1 *1124:B1 0.000136989
2 *1118:X 0.000136989
3 *1118:A3 *1124:B1 2.85234e-05
4 *1118:B1 *1124:B1 3.82431e-05
5 *97:30 *1124:B1 4.6025e-06
6 *116:29 *1124:B1 1.21258e-05
7 *124:38 *1124:B1 0.000122442
*RES
1 *1118:X *1124:B1 30.1893 
*END

*D_NET *134 0.00227993
*CONN
*I *1269:A2 I *D sky130_fd_sc_hd__o21ai_1
*I *1121:A2 I *D sky130_fd_sc_hd__a22oi_1
*I *1119:Y O *D sky130_fd_sc_hd__nand3_1
*CAP
1 *1269:A2 0
2 *1121:A2 0.000237189
3 *1119:Y 0.00065219
4 *134:12 0.000889379
5 *1121:A2 *1121:A1 0.000247057
6 *1121:A2 *1124:C1 5.41794e-05
7 *1121:A2 *1269:B1 0
8 *1121:A2 *1270:B 1.3701e-05
9 *1121:A2 *135:15 2.13202e-05
10 *1121:A2 *375:12 3.65178e-05
11 *134:12 *1121:A1 0
12 *134:12 *1269:B1 7.73758e-05
13 *134:12 *1344:RESET_B 0
14 *134:12 *374:12 0
15 *1119:A *134:12 0
16 *1248:A1 *1121:A2 2.13202e-05
17 *1269:A1 *1121:A2 2.97021e-05
18 *1344:D *134:12 0
*RES
1 *1119:Y *134:12 29.0143 
2 *134:12 *1121:A2 23.8714 
3 *134:12 *1269:A2 9.3 
*END

*D_NET *135 0.000950248
*CONN
*I *1271:A2 I *D sky130_fd_sc_hd__o21ai_1
*I *1248:B1 I *D sky130_fd_sc_hd__o21ai_1
*I *1121:B1 I *D sky130_fd_sc_hd__a22oi_1
*I *1120:Y O *D sky130_fd_sc_hd__nand3b_1
*CAP
1 *1271:A2 5.12251e-05
2 *1248:B1 0
3 *1121:B1 0
4 *1120:Y 7.14412e-05
5 *135:15 0.0002544
6 *135:6 0.000274616
7 *1271:A2 *1249:A1 2.57503e-05
8 *135:6 *1095:B1 5.33005e-05
9 *135:15 *1248:A2 1.56e-05
10 *135:15 *1249:A1 1.33343e-05
11 *1121:A2 *135:15 2.13202e-05
12 *1248:A1 *135:6 4.72917e-05
13 *1248:A1 *135:15 8.44442e-05
14 *1271:A1 *1271:A2 9.97677e-06
15 *1271:A1 *135:15 2.7547e-05
*RES
1 *1120:Y *135:6 10.6571 
2 *135:6 *1121:B1 9.3 
3 *135:6 *135:15 3.73214 
4 *135:15 *1248:B1 9.3 
5 *135:15 *1271:A2 10.2464 
*END

*D_NET *136 0.00271728
*CONN
*I *1124:C1 I *D sky130_fd_sc_hd__o2111a_2
*I *1121:Y O *D sky130_fd_sc_hd__a22oi_1
*CAP
1 *1124:C1 0.000531102
2 *1121:Y 0.000531102
3 *1124:C1 *1248:A2 0.000943741
4 *1124:C1 *137:14 0.000147325
5 *1121:A2 *1124:C1 5.41794e-05
6 *1248:A1 *1124:C1 0.00022266
7 *115:40 *1124:C1 0
8 *124:38 *1124:C1 0.000143709
9 *124:44 *1124:C1 0.000143464
*RES
1 *1121:Y *1124:C1 42.0464 
*END

*D_NET *137 0.00289476
*CONN
*I *1251:B1 I *D sky130_fd_sc_hd__a21oi_1
*I *1276:A2 I *D sky130_fd_sc_hd__o31a_1
*I *1123:A1 I *D sky130_fd_sc_hd__o21ai_1
*I *1273:A2 I *D sky130_fd_sc_hd__o31a_1
*I *1122:X O *D sky130_fd_sc_hd__a21o_1
*CAP
1 *1251:B1 0
2 *1276:A2 1.43642e-05
3 *1123:A1 0.000128502
4 *1273:A2 4.18848e-05
5 *1122:X 0.000356783
6 *137:37 0.000387514
7 *137:20 0.000391741
8 *137:14 0.000461992
9 *1123:A1 *1124:D1 4.82947e-05
10 *1123:A1 *1276:A3 6.05161e-06
11 *1123:A1 *1277:B 9.35114e-06
12 *1123:A1 *213:14 1.24368e-05
13 *1273:A2 *1273:B1 1.43713e-05
14 *1276:A2 *1276:B1 5.04841e-06
15 *137:14 *216:18 0.000227179
16 *137:20 *216:18 1.24368e-05
17 *137:37 *1118:A2 5.63975e-05
18 *137:37 *1276:A3 1.5006e-05
19 *137:37 *1276:B1 1.40306e-05
20 *1118:B1 *137:37 6.18969e-06
21 *1122:B1 *137:14 7.25873e-06
22 *1124:C1 *137:14 0.000147325
23 *1251:A1 *137:20 6.19764e-05
24 *1251:A1 *137:37 7.25413e-05
25 *1273:A3 *1273:A2 0.000108306
26 *1273:A3 *137:20 7.58841e-05
27 *97:30 *137:37 0
28 *116:16 *137:20 0.000195011
29 *116:16 *137:37 8.6229e-06
30 *124:44 *137:20 8.25843e-06
*RES
1 *1122:X *137:14 25.1929 
2 *137:14 *137:20 7.58929 
3 *137:20 *1273:A2 14.7464 
4 *137:20 *137:37 8.53571 
5 *137:37 *1123:A1 11.4964 
6 *137:37 *1276:A2 9.72857 
7 *137:14 *1251:B1 9.3 
*END

*D_NET *138 0.00177186
*CONN
*I *1124:D1 I *D sky130_fd_sc_hd__o2111a_2
*I *1123:Y O *D sky130_fd_sc_hd__o21ai_1
*CAP
1 *1124:D1 0.000411452
2 *1123:Y 0.000411452
3 *1124:D1 *1118:A2 1.90936e-05
4 *1124:D1 *1247:A 1.24368e-05
5 *1124:D1 *1248:A2 0.000124389
6 *1124:D1 *1276:A3 9.59532e-06
7 *1124:D1 *1276:B1 0.000221634
8 *1124:D1 *1277:B 2.59355e-05
9 *1124:D1 *213:14 0.000228902
10 *1124:D1 *256:459 2.05695e-05
11 *1124:D1 *355:48 8.23597e-06
12 *1123:A1 *1124:D1 4.82947e-05
13 *1124:A2 *1124:D1 6.87574e-05
14 *1247:B *1124:D1 3.14219e-05
15 *97:30 *1124:D1 7.30916e-05
16 *124:14 *1124:D1 5.65955e-05
*RES
1 *1123:Y *1124:D1 41.0601 
*END

*D_NET *139 0.00533848
*CONN
*I *1258:A1 I *D sky130_fd_sc_hd__o21ai_1
*I *1264:B1 I *D sky130_fd_sc_hd__a211o_1
*I *1266:A1 I *D sky130_fd_sc_hd__o31ai_1
*I *1267:B I *D sky130_fd_sc_hd__or4_1
*I *1261:A I *D sky130_fd_sc_hd__nor2_1
*I *1257:B I *D sky130_fd_sc_hd__or3_1
*I *1125:A2 I *D sky130_fd_sc_hd__o21ai_1
*I *1124:X O *D sky130_fd_sc_hd__o2111a_2
*CAP
1 *1258:A1 0
2 *1264:B1 0.000198759
3 *1266:A1 0.000120352
4 *1267:B 0
5 *1261:A 0
6 *1257:B 8.47787e-05
7 *1125:A2 0.000358843
8 *1124:X 0
9 *139:61 0.000314915
10 *139:46 0.000257159
11 *139:42 0.000341751
12 *139:31 0.00029591
13 *139:27 0.00060834
14 *139:6 0.000836447
15 *1125:A2 *1248:A2 0.00014462
16 *1125:A2 *216:18 3.80385e-05
17 *1125:A2 *256:480 0
18 *1264:B1 *1264:A2 5.83677e-05
19 *1264:B1 *1264:C1 5.49995e-05
20 *1266:A1 *1342:CLK 0
21 *139:27 *1101:B1 0
22 *139:27 *1276:B1 0
23 *139:27 *247:8 0.000102207
24 *139:27 *377:25 0
25 *139:46 *1261:B 1.24368e-05
26 *139:46 *1264:A2 2.59355e-05
27 *139:61 *1261:B 4.25684e-05
28 *139:61 *1265:A2 6.05161e-06
29 *139:61 *219:43 0.000146991
30 *139:61 *219:58 0.000119535
31 *1112:A_N *139:27 0
32 *1124:A2 *1125:A2 4.46186e-06
33 *1124:A2 *139:27 3.25078e-05
34 *1125:B1 *1125:A2 0.000100165
35 *1258:B1 *139:27 0
36 *1265:C1 *139:61 0.000169095
37 *1343:D *1125:A2 0.000100165
38 *98:72 *1257:B 3.80613e-05
39 *102:28 *1264:B1 2.85234e-05
40 *102:28 *1266:A1 0
41 *105:16 *1264:B1 3.03858e-05
42 *105:16 *139:27 0
43 *105:16 *139:31 0.000244629
44 *105:16 *139:42 0.00014925
45 *116:29 *1125:A2 0.000137422
46 *116:29 *139:27 6.32633e-05
47 *124:38 *1125:A2 0
48 *129:14 *1125:A2 7.15503e-05
*RES
1 *1124:X *139:6 13.8 
2 *139:6 *1125:A2 22.2107 
3 *139:6 *139:27 13.1964 
4 *139:27 *139:31 7.66071 
5 *139:31 *1257:B 14.7464 
6 *139:31 *139:42 1.94643 
7 *139:42 *139:46 5.44643 
8 *139:46 *1261:A 9.3 
9 *139:46 *139:61 9.76786 
10 *139:61 *1267:B 13.8 
11 *139:61 *1266:A1 15.4964 
12 *139:42 *1264:B1 17.6571 
13 *139:27 *1258:A1 9.3 
*END

*D_NET *140 0.00321896
*CONN
*I *1130:A1 I *D sky130_fd_sc_hd__a22o_1
*I *1131:A1 I *D sky130_fd_sc_hd__o221a_2
*I *1126:Y O *D sky130_fd_sc_hd__inv_2
*CAP
1 *1130:A1 8.81313e-05
2 *1131:A1 0.000397227
3 *1126:Y 0.000561149
4 *140:14 0.00104651
5 *1130:A1 *1130:A2 5.27308e-05
6 *1130:A1 *1130:B1 1.8289e-05
7 *1131:A1 *1127:A 9.58181e-05
8 *1131:A1 *1129:C1 1.00332e-05
9 *1131:A1 *1131:A2 3.18377e-05
10 *1131:A1 *1131:B2 7.79937e-05
11 *1131:A1 *1397:A 7.35234e-06
12 *1131:A1 *352:6 0.000140088
13 *140:14 *1126:A 0.00010096
14 *140:14 *1130:A2 0.000272744
15 *140:14 *254:10 0.000318101
16 *140:14 *254:12 0
*RES
1 *1126:Y *140:14 28.7107 
2 *140:14 *1131:A1 33.0679 
3 *140:14 *1130:A1 10.675 
*END

*D_NET *141 0.00262896
*CONN
*I *1130:B2 I *D sky130_fd_sc_hd__a22o_1
*I *1129:A2 I *D sky130_fd_sc_hd__o211a_1
*I *1127:Y O *D sky130_fd_sc_hd__inv_2
*CAP
1 *1130:B2 0.000235537
2 *1129:A2 0.000425709
3 *1127:Y 0.000159849
4 *141:8 0.000821095
5 *1129:A2 *1128:A 9.55178e-05
6 *1129:A2 *1129:B1 0.000218931
7 *1129:A2 *1129:C1 4.98618e-05
8 *1129:A2 *1131:B1 0.000105675
9 *1129:A2 *1200:A1 0.000268262
10 *1129:A2 *1312:CLK 0.000182598
11 *1312:D *1129:A2 6.59263e-05
*RES
1 *1127:Y *141:8 15.5679 
2 *141:8 *1129:A2 25.4071 
3 *141:8 *1130:B2 17.8 
*END

*D_NET *142 0.00118282
*CONN
*I *1129:C1 I *D sky130_fd_sc_hd__o211a_1
*I *1128:Y O *D sky130_fd_sc_hd__inv_2
*CAP
1 *1129:C1 0.000350264
2 *1128:Y 0.000350264
3 *1129:C1 *1127:A 5.46383e-06
4 *1129:C1 *1131:B1 1.32293e-05
5 *1129:C1 *1131:B2 0.000141864
6 *1129:C1 *1201:A 7.0101e-05
7 *1129:C1 *1202:S 6.05161e-06
8 *1129:C1 *1312:CLK 1.98839e-05
9 *1129:C1 *145:39 9.49806e-05
10 *1129:C1 *253:12 3.61729e-05
11 *1129:A2 *1129:C1 4.98618e-05
12 *1131:A1 *1129:C1 1.00332e-05
13 *1312:D *1129:C1 3.46491e-05
*RES
1 *1128:Y *1129:C1 34.3143 
*END

*D_NET *143 0.000910517
*CONN
*I *1131:B1 I *D sky130_fd_sc_hd__o221a_2
*I *1129:X O *D sky130_fd_sc_hd__o211a_1
*CAP
1 *1131:B1 0.000332863
2 *1129:X 0.000332863
3 *1131:B1 *1131:A2 4.27842e-06
4 *1131:B1 *1202:S 1.28809e-05
5 *1131:B1 *253:12 3.54498e-05
6 *1131:B1 *352:6 6.26774e-06
7 *1129:A2 *1131:B1 0.000105675
8 *1129:C1 *1131:B1 1.32293e-05
9 *1204:A2 *1131:B1 5.54817e-06
10 *93:168 *1131:B1 6.14605e-05
*RES
1 *1129:X *1131:B1 32.3723 
*END

*D_NET *144 0.000969881
*CONN
*I *1131:B2 I *D sky130_fd_sc_hd__o221a_2
*I *1130:X O *D sky130_fd_sc_hd__a22o_1
*CAP
1 *1131:B2 0.000129613
2 *1130:X 0.000129613
3 *1131:B2 *1127:A 4.17702e-05
4 *1131:B2 *1202:S 8.02324e-05
5 *1131:B2 *1397:A 0.000100236
6 *1131:B2 *352:6 0.000268559
7 *1129:C1 *1131:B2 0.000141864
8 *1131:A1 *1131:B2 7.79937e-05
*RES
1 *1130:X *1131:B2 32.2429 
*END

*D_NET *145 0.00724484
*CONN
*I *1134:S I *D sky130_fd_sc_hd__mux2_1
*I *1132:S I *D sky130_fd_sc_hd__mux2_1
*I *1136:S I *D sky130_fd_sc_hd__mux2_1
*I *1200:S I *D sky130_fd_sc_hd__mux2_1
*I *1202:S I *D sky130_fd_sc_hd__mux2_1
*I *1131:X O *D sky130_fd_sc_hd__o221a_2
*CAP
1 *1134:S 1.01867e-05
2 *1132:S 0.000405799
3 *1136:S 0.000522607
4 *1200:S 0
5 *1202:S 0.000272224
6 *1131:X 0
7 *145:67 0.0013078
8 *145:41 0.000560676
9 *145:39 0.00133241
10 *145:4 0.000674753
11 *1132:S *1132:A0 1.59373e-05
12 *1132:S *1132:A1 0.000143651
13 *1132:S *1133:A 5.27571e-05
14 *1134:S *1384:A 5.49544e-05
15 *1134:S *243:112 4.25176e-05
16 *1136:S *1200:A0 9.95826e-05
17 *1136:S *1383:A 1.00887e-05
18 *1202:S *1129:A1 1.59782e-05
19 *1202:S *1130:B1 5.52238e-05
20 *1202:S *1131:A2 8.28376e-05
21 *1202:S *1202:A0 5.52238e-05
22 *1202:S *253:12 0.00013926
23 *1202:S *254:12 4.1331e-06
24 *1202:S *352:6 2.4428e-05
25 *145:39 *1128:A 2.16315e-05
26 *145:39 *1200:A0 3.41649e-05
27 *145:39 *1200:A1 7.54868e-05
28 *145:39 *1201:A 8.2634e-05
29 *145:67 *1200:A0 5.71014e-05
30 *145:67 *1290:CLK 0.000100074
31 *145:67 *1384:A 0.000141935
32 *145:67 *243:112 0.000530238
33 *1129:C1 *1202:S 6.05161e-06
34 *1129:C1 *145:39 9.49806e-05
35 *1131:B1 *1202:S 1.28809e-05
36 *1131:B2 *1202:S 8.02324e-05
37 *1204:A2 *1202:S 0.0001244
38 *1289:D *1132:S 0
*RES
1 *1131:X *145:4 9.3 
2 *145:4 *1202:S 24.9607 
3 *145:4 *145:39 15.8393 
4 *145:39 *145:41 0.732143 
5 *145:41 *1200:S 9.3 
6 *145:41 *1136:S 28.3893 
7 *145:39 *145:67 14.125 
8 *145:67 *1132:S 25.3 
9 *145:67 *1134:S 9.83571 
*END

*D_NET *146 0.000357754
*CONN
*I *1133:A I *D sky130_fd_sc_hd__clkbuf_1
*I *1132:X O *D sky130_fd_sc_hd__mux2_1
*CAP
1 *1133:A 9.54651e-05
2 *1132:X 9.54651e-05
3 *1133:A *1132:A1 3.18676e-05
4 *1133:A *256:537 8.21987e-05
5 *1132:S *1133:A 5.27571e-05
*RES
1 *1132:X *1133:A 30.0821 
*END

*D_NET *147 0.00120063
*CONN
*I *1135:A I *D sky130_fd_sc_hd__clkbuf_1
*I *1134:X O *D sky130_fd_sc_hd__mux2_1
*CAP
1 *1135:A 0.00016853
2 *1134:X 0.00016853
3 *1135:A *1132:A0 0.000184521
4 *1135:A *1134:A1 0.00033973
5 *1289:D *1135:A 0.000339315
*RES
1 *1134:X *1135:A 33.7429 
*END

*D_NET *148 0.000603647
*CONN
*I *1137:A I *D sky130_fd_sc_hd__clkbuf_1
*I *1136:X O *D sky130_fd_sc_hd__mux2_1
*CAP
1 *1137:A 0.000175568
2 *1136:X 0.000175568
3 *1137:A *1136:A0 7.58841e-05
4 *1137:A *1312:RESET_B 5.12583e-05
5 *1137:A *256:537 3.67279e-06
6 *1137:A *256:551 2.73164e-05
7 *1290:D *1137:A 9.43804e-05
*RES
1 *1136:X *1137:A 31.975 
*END

*D_NET *149 0.00106734
*CONN
*I *1143:A1 I *D sky130_fd_sc_hd__o221a_2
*I *1142:A1 I *D sky130_fd_sc_hd__a22o_1
*I *1138:Y O *D sky130_fd_sc_hd__inv_2
*CAP
1 *1143:A1 3.64069e-05
2 *1142:A1 0.000371294
3 *1138:Y 6.24561e-05
4 *149:10 0.000470157
5 *1142:A1 *1143:A2 7.40845e-06
6 *1142:A1 *1143:B1 6.26774e-06
7 *1142:A1 *1143:B2 3.80525e-05
8 *149:10 *256:37 2.29112e-05
9 *1143:C1 *1142:A1 5.23822e-05
*RES
1 *1138:Y *149:10 19.3357 
2 *149:10 *1142:A1 13.9607 
3 *149:10 *1143:A1 10.0321 
*END

*D_NET *150 0.00132106
*CONN
*I *1141:A1 I *D sky130_fd_sc_hd__o211a_1
*I *1142:B1 I *D sky130_fd_sc_hd__a22o_1
*I *1139:Y O *D sky130_fd_sc_hd__inv_2
*CAP
1 *1141:A1 1.38768e-05
2 *1142:B1 0.000247225
3 *1139:Y 0.000119961
4 *150:6 0.000381063
5 *1141:A1 *1141:A2 1.02301e-05
6 *1141:A1 *259:10 7.80548e-06
7 *1142:B1 *1146:A1 1.853e-05
8 *1142:B1 *259:10 0.000151266
9 *1142:B1 *270:14 9.45304e-05
10 *1142:B1 *281:27 5.54817e-06
11 *150:6 *1143:B1 2.85234e-05
12 *150:6 *1146:A1 0.00016041
13 *150:6 *154:27 1.24368e-05
14 *93:53 *1142:B1 6.4404e-05
15 *93:66 *1142:B1 5.24684e-06
*RES
1 *1139:Y *150:6 12.3 
2 *150:6 *1142:B1 23.4071 
3 *150:6 *1141:A1 9.72857 
*END

*D_NET *151 0.000379205
*CONN
*I *1141:C1 I *D sky130_fd_sc_hd__o211a_1
*I *1140:Y O *D sky130_fd_sc_hd__inv_2
*CAP
1 *1141:C1 0.000119185
2 *1140:Y 0.000119185
3 *1141:C1 *270:14 1.6815e-05
4 *93:53 *1141:C1 0.000124019
*RES
1 *1140:Y *1141:C1 29.7786 
*END

*D_NET *152 0.000469761
*CONN
*I *1143:B1 I *D sky130_fd_sc_hd__o221a_2
*I *1141:X O *D sky130_fd_sc_hd__o211a_1
*CAP
1 *1143:B1 0.000138679
2 *1141:X 0.000138679
3 *1143:B1 *1143:B2 1.28809e-05
4 *1143:B1 *256:37 0.000144732
5 *1142:A1 *1143:B1 6.26774e-06
6 *150:6 *1143:B1 2.85234e-05
*RES
1 *1141:X *1143:B1 30.2116 
*END

*D_NET *153 0.000362793
*CONN
*I *1143:B2 I *D sky130_fd_sc_hd__o221a_2
*I *1142:X O *D sky130_fd_sc_hd__a22o_1
*CAP
1 *1143:B2 6.89906e-05
2 *1142:X 6.89906e-05
3 *1143:B2 *1143:A2 0.000107195
4 *1142:A1 *1143:B2 3.80525e-05
5 *1143:B1 *1143:B2 1.28809e-05
6 *1143:C1 *1143:B2 6.6684e-05
*RES
1 *1142:X *1143:B2 20.7964 
*END

*D_NET *154 0.00606786
*CONN
*I *1164:S I *D sky130_fd_sc_hd__mux2_1
*I *1162:S I *D sky130_fd_sc_hd__mux2_1
*I *1160:S I *D sky130_fd_sc_hd__mux2_1
*I *1146:S I *D sky130_fd_sc_hd__mux2_1
*I *1144:S I *D sky130_fd_sc_hd__mux2_1
*I *1143:X O *D sky130_fd_sc_hd__o221a_2
*CAP
1 *1164:S 5.65692e-05
2 *1162:S 6.00907e-05
3 *1160:S 0.000247063
4 *1146:S 0
5 *1144:S 0.000478679
6 *1143:X 6.28038e-05
7 *154:38 0.000473639
8 *154:34 0.00116165
9 *154:27 0.00118832
10 *154:8 0.000791201
11 *1144:S *1292:CLK 0
12 *1144:S *256:23 9.6087e-05
13 *1160:S *1160:A0 2.36643e-05
14 *1160:S *1160:A1 0.000100261
15 *1160:S *324:10 0
16 *1164:S *1164:A0 9.99853e-05
17 *1164:S *1164:A1 1.51571e-05
18 *154:27 *1139:A 0.00021403
19 *154:27 *1146:A1 9.86486e-06
20 *154:34 *1139:A 0.000185197
21 *154:34 *1162:A1 2.83425e-05
22 *154:34 *1164:A1 0.000147774
23 *154:34 *1165:A 3.11088e-05
24 *154:34 *1402:A 0.000225988
25 *1298:D *1160:S 0
26 *93:10 *1144:S 0.000357952
27 *150:6 *154:27 1.24368e-05
*RES
1 *1143:X *154:8 14.8357 
2 *154:8 *1144:S 22.8 
3 *154:8 *154:27 9.58929 
4 *154:27 *1146:S 9.3 
5 *154:27 *154:34 16.9643 
6 *154:34 *154:38 7.35714 
7 *154:38 *1160:S 18.0679 
8 *154:38 *1162:S 14.7464 
9 *154:34 *1164:S 10.6571 
*END

*D_NET *155 0.000415804
*CONN
*I *1145:A I *D sky130_fd_sc_hd__clkbuf_1
*I *1144:X O *D sky130_fd_sc_hd__mux2_1
*CAP
1 *1145:A 0.000159886
2 *1144:X 0.000159886
3 *1291:D *1145:A 3.9733e-05
4 *93:6 *1145:A 5.62995e-05
*RES
1 *1144:X *1145:A 30.4929 
*END

*D_NET *156 0.00145347
*CONN
*I *1147:A I *D sky130_fd_sc_hd__clkbuf_1
*I *1146:X O *D sky130_fd_sc_hd__mux2_1
*CAP
1 *1147:A 0.000421544
2 *1146:X 0.000421544
3 *1147:A *1140:A 5.49995e-05
4 *1147:A *1144:A1 4.26814e-05
5 *1147:A *1146:A1 0.000441021
6 *1147:A *256:23 2.72055e-05
7 *1147:A *256:37 3.20387e-05
8 *1292:D *1147:A 1.24368e-05
*RES
1 *1146:X *1147:A 34.4214 
*END

*D_NET *157 0.00145984
*CONN
*I *1153:A1 I *D sky130_fd_sc_hd__a22o_1
*I *1154:A1 I *D sky130_fd_sc_hd__o221a_2
*I *1149:Y O *D sky130_fd_sc_hd__inv_2
*CAP
1 *1153:A1 5.12268e-05
2 *1154:A1 0.000135472
3 *1149:Y 7.61883e-05
4 *157:6 0.000262887
5 *1153:A1 *1153:A2 3.49456e-06
6 *1153:A1 *1153:B1 5.49995e-05
7 *1153:A1 *1153:B2 3.50746e-05
8 *1153:A1 *240:51 5.33005e-05
9 *1153:A1 *314:18 1.98839e-05
10 *1154:A1 *1153:B1 1.12713e-05
11 *1154:A1 *1153:B2 5.66971e-05
12 *1154:A1 *1154:B2 6.42201e-05
13 *1154:A1 *1155:S 7.74068e-05
14 *1154:A1 *162:12 5.36422e-05
15 *1154:A1 *314:18 6.93626e-06
16 *157:6 *1154:B2 0.000227765
17 *157:6 *240:51 0.000269378
*RES
1 *1149:Y *157:6 12.3 
2 *157:6 *1154:A1 21.6214 
3 *157:6 *1153:A1 10.9786 
*END

*D_NET *158 0.00163533
*CONN
*I *1152:A1 I *D sky130_fd_sc_hd__o211a_1
*I *1153:B1 I *D sky130_fd_sc_hd__a22o_1
*I *1150:Y O *D sky130_fd_sc_hd__inv_2
*CAP
1 *1152:A1 0
2 *1153:B1 0.000113824
3 *1150:Y 0.000173865
4 *158:12 0.000287689
5 *1153:B1 *1152:A2 1.02301e-05
6 *1153:B1 *1152:B1 1.32693e-05
7 *1153:B1 *1153:B2 0.000142449
8 *1153:B1 *314:18 0.000269428
9 *158:12 *1154:B1 0.000150043
10 *158:12 *1295:CLK 3.90086e-05
11 *158:12 *256:76 5.50052e-05
12 *158:12 *314:10 4.45753e-05
13 *158:12 *314:18 4.85263e-05
14 *1153:A1 *1153:B1 5.49995e-05
15 *1154:A1 *1153:B1 1.12713e-05
16 *93:95 *158:12 0.00022115
*RES
1 *1150:Y *158:12 23.2107 
2 *158:12 *1153:B1 13.1393 
3 *158:12 *1152:A1 9.3 
*END

*D_NET *159 0.000193717
*CONN
*I *1152:C1 I *D sky130_fd_sc_hd__o211a_1
*I *1151:Y O *D sky130_fd_sc_hd__inv_2
*CAP
1 *1152:C1 5.97671e-05
2 *1151:Y 5.97671e-05
3 *1152:C1 *1152:A2 4.99222e-06
4 *1152:C1 *1152:B1 1.27226e-05
5 *1152:C1 *292:8 5.10039e-05
6 *1152:C1 *303:27 5.46383e-06
*RES
1 *1151:Y *1152:C1 19.975 
*END

*D_NET *160 0.000692651
*CONN
*I *1154:B1 I *D sky130_fd_sc_hd__o221a_2
*I *1152:X O *D sky130_fd_sc_hd__o211a_1
*CAP
1 *1154:B1 0.000160555
2 *1152:X 0.000160555
3 *1154:B1 *1153:B2 5.10039e-05
4 *1154:B1 *1157:S 1.28809e-05
5 *1154:B1 *314:18 0.000144732
6 *93:114 *1154:B1 1.28809e-05
7 *158:12 *1154:B1 0.000150043
*RES
1 *1152:X *1154:B1 30.6223 
*END

*D_NET *161 0.00127257
*CONN
*I *1154:B2 I *D sky130_fd_sc_hd__o221a_2
*I *1153:X O *D sky130_fd_sc_hd__a22o_1
*CAP
1 *1154:B2 0.000311926
2 *1153:X 0.000311926
3 *1154:B2 *1154:A2 2.85321e-05
4 *1154:B2 *1157:S 0.00013185
5 *1154:B2 *162:12 0.000137639
6 *1154:B2 *256:60 4.88537e-05
7 *1154:A1 *1154:B2 6.42201e-05
8 *93:114 *1154:B2 9.85599e-06
9 *157:6 *1154:B2 0.000227765
*RES
1 *1153:X *1154:B2 33.725 
*END

*D_NET *162 0.00848316
*CONN
*I *1179:S I *D sky130_fd_sc_hd__mux2_1
*I *1181:S I *D sky130_fd_sc_hd__mux2_1
*I *1177:S I *D sky130_fd_sc_hd__mux2_1
*I *1157:S I *D sky130_fd_sc_hd__mux2_1
*I *1155:S I *D sky130_fd_sc_hd__mux2_1
*I *1154:X O *D sky130_fd_sc_hd__o221a_2
*CAP
1 *1179:S 0.000125829
2 *1181:S 0.00021838
3 *1177:S 0
4 *1157:S 0.000259485
5 *1155:S 0.000638532
6 *1154:X 2.13113e-05
7 *162:55 0.00058902
8 *162:44 0.00146845
9 *162:12 0.000959339
10 *162:6 0.00130627
11 *1155:S *1148:B1 9.90431e-05
12 *1155:S *1294:RESET_B 0
13 *1155:S *1295:CLK 0
14 *1155:S *1372:A 4.46186e-06
15 *1155:S *240:12 0
16 *1155:S *240:38 0
17 *1155:S *240:51 0
18 *1155:S *314:18 9.3753e-05
19 *1157:S *1157:A0 7.25873e-06
20 *1157:S *303:27 4.84073e-05
21 *1179:S *1179:A0 9.55372e-05
22 *1179:S *1179:A1 2.89016e-05
23 *1179:S *1231:A1 1.21258e-05
24 *1179:S *1328:CLK 0.000434813
25 *1179:S *1375:A 3.18676e-05
26 *1181:S *256:639 0
27 *1181:S *256:659 0
28 *1181:S *256:673 0
29 *162:12 *314:18 2.2927e-05
30 *162:44 *1149:A 0.000137097
31 *162:44 *1177:A0 1.85914e-05
32 *162:44 *1296:RESET_B 0.000132605
33 *162:44 *324:74 0.000163703
34 *162:44 *335:6 4.84073e-05
35 *162:55 *1177:A0 7.22574e-05
36 *162:55 *1231:A0 0
37 *162:55 *1231:A1 7.83659e-05
38 *162:55 *1327:RESET_B 0
39 *1154:A1 *1155:S 7.74068e-05
40 *1154:A1 *162:12 5.36422e-05
41 *1154:B1 *1157:S 1.28809e-05
42 *1154:B2 *1157:S 0.00013185
43 *1154:B2 *162:12 0.000137639
44 *1159:A1 *162:44 1.83626e-05
45 *93:95 *1155:S 0
46 *93:114 *1157:S 4.16864e-05
47 *93:114 *162:12 7.2266e-05
48 *93:114 *162:44 4.63219e-05
49 *126:10 *1181:S 0.000387417
50 *126:10 *162:55 0.000213327
51 *126:169 *162:55 0.000173614
*RES
1 *1154:X *162:6 9.72857 
2 *162:6 *162:12 6.58929 
3 *162:12 *1155:S 25.6214 
4 *162:12 *1157:S 18.0679 
5 *162:6 *162:44 18.5536 
6 *162:44 *1177:S 9.3 
7 *162:44 *162:55 10.8393 
8 *162:55 *1181:S 18.7821 
9 *162:55 *1179:S 18.0321 
*END

*D_NET *163 0.000717602
*CONN
*I *1156:A I *D sky130_fd_sc_hd__clkbuf_1
*I *1155:X O *D sky130_fd_sc_hd__mux2_1
*CAP
1 *1156:A 0.000284261
2 *1155:X 0.000284261
3 *1156:A *1151:A 0
4 *1156:A *1294:CLK 0
5 *1156:A *281:14 5.71472e-05
6 *1156:A *281:27 2.44318e-05
7 *1294:D *1156:A 6.75007e-05
8 *93:95 *1156:A 0
*RES
1 *1155:X *1156:A 32.9214 
*END

*D_NET *164 0.000239921
*CONN
*I *1158:A I *D sky130_fd_sc_hd__clkbuf_1
*I *1157:X O *D sky130_fd_sc_hd__mux2_1
*CAP
1 *1158:A 9.31912e-05
2 *1157:X 9.31912e-05
3 *1158:A *303:6 5.35386e-05
*RES
1 *1157:X *1158:A 20.6893 
*END

*D_NET *165 0.000182014
*CONN
*I *1161:A I *D sky130_fd_sc_hd__clkbuf_1
*I *1160:X O *D sky130_fd_sc_hd__mux2_1
*CAP
1 *1161:A 4.91113e-05
2 *1160:X 4.91113e-05
3 *1161:A *1160:A1 8.37917e-05
*RES
1 *1160:X *1161:A 19.8679 
*END

*D_NET *166 0.00031822
*CONN
*I *1163:A I *D sky130_fd_sc_hd__clkbuf_1
*I *1162:X O *D sky130_fd_sc_hd__mux2_1
*CAP
1 *1163:A 7.70286e-05
2 *1162:X 7.70286e-05
3 *1163:A *1162:A0 0.000143375
4 *1298:D *1163:A 2.07878e-05
*RES
1 *1162:X *1163:A 20.6893 
*END

*D_NET *167 0.000368729
*CONN
*I *1165:A I *D sky130_fd_sc_hd__clkbuf_1
*I *1164:X O *D sky130_fd_sc_hd__mux2_1
*CAP
1 *1165:A 0.000127535
2 *1164:X 0.000127535
3 *1165:A *1164:A1 7.70015e-05
4 *1165:A *326:76 5.54817e-06
5 *154:34 *1165:A 3.11088e-05
*RES
1 *1164:X *1165:A 30.0821 
*END

*D_NET *168 0.00122972
*CONN
*I *1171:A1 I *D sky130_fd_sc_hd__o221a_2
*I *1170:A1 I *D sky130_fd_sc_hd__a22o_1
*I *1166:Y O *D sky130_fd_sc_hd__inv_2
*CAP
1 *1171:A1 0.00023511
2 *1170:A1 0.000149376
3 *1166:Y 0
4 *168:4 0.000384486
5 *1170:A1 *1170:A2 0.000179857
6 *1170:A1 *1174:A1 1.59373e-05
7 *1171:A1 *1166:A 1.98839e-05
8 *1171:A1 *1170:A2 9.41642e-05
9 *1171:A1 *1171:A2 0.000100478
10 *1171:A1 *1171:B2 1.3701e-05
11 *1171:A1 *1355:A 3.67252e-05
*RES
1 *1166:Y *168:4 9.3 
2 *168:4 *1170:A1 12.0321 
3 *168:4 *1171:A1 22.3714 
*END

*D_NET *169 0.00131517
*CONN
*I *1170:B1 I *D sky130_fd_sc_hd__a22o_1
*I *1169:A1 I *D sky130_fd_sc_hd__o211a_1
*I *1167:Y O *D sky130_fd_sc_hd__inv_2
*CAP
1 *1170:B1 0.000176598
2 *1169:A1 4.6054e-05
3 *1167:Y 0.000212684
4 *169:12 0.000435336
5 *1169:A1 *320:15 4.97967e-05
6 *1170:B1 *1169:A2 3.49456e-06
7 *1170:B1 *1174:A1 2.56723e-05
8 *1170:B1 *320:15 5.93268e-05
9 *169:12 *1168:A 4.46186e-06
10 *169:12 *1401:A 0.000161971
11 *169:12 *242:36 0.00012249
12 *169:12 *256:112 1.72894e-05
*RES
1 *1167:Y *169:12 22.9071 
2 *169:12 *1169:A1 10.2464 
3 *169:12 *1170:B1 12.3179 
*END

*D_NET *170 0.00141914
*CONN
*I *1169:C1 I *D sky130_fd_sc_hd__o211a_1
*I *1168:Y O *D sky130_fd_sc_hd__inv_2
*CAP
1 *1169:C1 0.000472925
2 *1168:Y 0.000472925
3 *1169:C1 *1168:A 1.74352e-05
4 *1169:C1 *1169:B1 0
5 *1169:C1 *1172:A0 6.13903e-05
6 *1169:C1 *1301:CLK 0.000264616
7 *1169:C1 *242:8 0.000129852
*RES
1 *1168:Y *1169:C1 36.6893 
*END

*D_NET *171 0.00190848
*CONN
*I *1171:B1 I *D sky130_fd_sc_hd__o221a_2
*I *1169:X O *D sky130_fd_sc_hd__o211a_1
*CAP
1 *1171:B1 0.000512629
2 *1169:X 0.000512629
3 *1171:B1 *1171:B2 0.000129853
4 *1171:B1 *1174:A1 0.000566131
5 *1171:B1 *1355:A 3.63688e-05
6 *1171:B1 *249:16 8.9224e-06
7 *1171:B1 *320:15 0.000141941
8 *93:139 *1171:B1 0
*RES
1 *1169:X *1171:B1 35.9348 
*END

*D_NET *172 0.000627507
*CONN
*I *1171:B2 I *D sky130_fd_sc_hd__o221a_2
*I *1170:X O *D sky130_fd_sc_hd__a22o_1
*CAP
1 *1171:B2 0.000223258
2 *1170:X 0.000223258
3 *1171:B2 *1355:A 2.68187e-05
4 *1171:A1 *1171:B2 1.3701e-05
5 *1171:B1 *1171:B2 0.000129853
6 *1171:C1 *1171:B2 1.06173e-05
*RES
1 *1170:X *1171:B2 31.3857 
*END

*D_NET *173 0.00748824
*CONN
*I *1198:S I *D sky130_fd_sc_hd__mux2_1
*I *1196:S I *D sky130_fd_sc_hd__mux2_1
*I *1194:S I *D sky130_fd_sc_hd__mux2_1
*I *1174:S I *D sky130_fd_sc_hd__mux2_1
*I *1172:S I *D sky130_fd_sc_hd__mux2_1
*I *1171:X O *D sky130_fd_sc_hd__o221a_2
*CAP
1 *1198:S 9.12667e-05
2 *1196:S 0.000198657
3 *1194:S 0.000306487
4 *1174:S 0.000195293
5 *1172:S 0.000429469
6 *1171:X 0
7 *173:34 0.000551454
8 *173:30 0.000760049
9 *173:8 0.000987743
10 *173:4 0.000985452
11 *1172:S *1172:A0 5.76121e-05
12 *1172:S *242:36 7.84357e-05
13 *1174:S *1174:A1 5.65955e-05
14 *1174:S *1355:A 1.62621e-05
15 *1194:S *1194:A1 0.000167658
16 *1194:S *324:74 5.5764e-05
17 *1194:S *324:95 0.000546716
18 *1194:S *326:35 0.000599222
19 *1196:S *1196:A0 2.44318e-05
20 *1196:S *1197:A 4.16984e-05
21 *1196:S *325:76 0.000271345
22 *1198:S *1198:A0 3.14048e-05
23 *173:8 *1355:A 0.000400221
24 *173:30 *1199:A 3.65822e-05
25 *173:30 *1355:A 9.83388e-05
26 *173:34 *324:95 0.000123594
27 *173:34 *326:35 0.000115693
28 *1171:C1 *1172:S 5.33005e-05
29 *1171:C1 *173:8 2.95577e-05
30 *93:120 *1174:S 0.000177941
*RES
1 *1171:X *173:4 9.3 
2 *173:4 *173:8 5.375 
3 *173:8 *1172:S 16.8179 
4 *173:8 *1174:S 21.9071 
5 *173:4 *173:30 7.51786 
6 *173:30 *173:34 6.14286 
7 *173:34 *1194:S 24.5143 
8 *173:34 *1196:S 18.0321 
9 *173:30 *1198:S 10.9786 
*END

*D_NET *174 0.000649469
*CONN
*I *1173:A I *D sky130_fd_sc_hd__clkbuf_1
*I *1172:X O *D sky130_fd_sc_hd__mux2_1
*CAP
1 *1173:A 0.000261117
2 *1172:X 0.000261117
3 *1173:A *1168:A 0
4 *1173:A *1301:CLK 0
5 *1173:A *319:12 7.3847e-05
6 *1300:D *1173:A 5.33882e-05
*RES
1 *1172:X *1173:A 32.9929 
*END

*D_NET *175 0.00110862
*CONN
*I *1175:A I *D sky130_fd_sc_hd__clkbuf_1
*I *1174:X O *D sky130_fd_sc_hd__mux2_1
*CAP
1 *1175:A 0.00040131
2 *1174:X 0.00040131
3 *1175:A *1167:A 3.92854e-05
4 *1175:A *1168:A 0
5 *1175:A *256:86 0
6 *1175:A *314:10 0.000122091
7 *93:120 *1175:A 0.000144623
*RES
1 *1174:X *1175:A 35.9214 
*END

*D_NET *176 0.000888161
*CONN
*I *1178:A I *D sky130_fd_sc_hd__clkbuf_1
*I *1177:X O *D sky130_fd_sc_hd__mux2_1
*CAP
1 *1178:A 0.000280532
2 *1177:X 0.000280532
3 *1178:A *1303:RESET_B 0.000248048
4 *1178:A *324:74 5.08914e-05
5 *1178:A *325:61 2.81581e-05
*RES
1 *1177:X *1178:A 33.3321 
*END

*D_NET *177 0.000346581
*CONN
*I *1180:A I *D sky130_fd_sc_hd__clkbuf_1
*I *1179:X O *D sky130_fd_sc_hd__mux2_1
*CAP
1 *1180:A 0.000173291
2 *1179:X 0.000173291
3 *1180:A *1328:CLK 0
*RES
1 *1179:X *1180:A 21.5107 
*END

*D_NET *178 0.00127331
*CONN
*I *1182:A I *D sky130_fd_sc_hd__clkbuf_1
*I *1181:X O *D sky130_fd_sc_hd__mux2_1
*CAP
1 *1182:A 0.000293403
2 *1181:X 0.000293403
3 *1182:A *1181:A1 5.52302e-05
4 *1182:A *324:68 0.000265958
5 *1182:A *326:72 9.60875e-05
6 *126:10 *1182:A 0.000269225
*RES
1 *1181:X *1182:A 35.4571 
*END

*D_NET *179 0.00102008
*CONN
*I *1187:A1 I *D sky130_fd_sc_hd__a22o_1
*I *1188:A1 I *D sky130_fd_sc_hd__o221a_2
*I *1183:Y O *D sky130_fd_sc_hd__inv_2
*CAP
1 *1187:A1 0
2 *1188:A1 7.16556e-05
3 *1183:Y 8.49649e-05
4 *179:8 0.00015662
5 *1188:A1 *1187:A2 0.000282659
6 *1188:A1 *1187:B1 0.000138724
7 *1188:A1 *1188:B2 9.77264e-06
8 *179:8 *1187:A2 5.09539e-05
9 *179:8 *1187:B1 3.50166e-05
10 *179:8 *1188:B2 0.000143375
11 *179:8 *184:34 4.6338e-05
*RES
1 *1183:Y *179:8 12.2107 
2 *179:8 *1188:A1 12.3179 
3 *179:8 *1187:A1 9.3 
*END

*D_NET *180 0.00259016
*CONN
*I *1186:A2 I *D sky130_fd_sc_hd__o211a_1
*I *1187:B2 I *D sky130_fd_sc_hd__a22o_1
*I *1184:Y O *D sky130_fd_sc_hd__inv_2
*CAP
1 *1186:A2 0
2 *1187:B2 0.000651168
3 *1184:Y 0.000347756
4 *180:12 0.000998924
5 *1187:B2 *1185:A 5.33433e-05
6 *1187:B2 *1186:A1 5.62995e-05
7 *1187:B2 *1186:B1 3.57366e-05
8 *1187:B2 *1186:C1 3.23588e-05
9 *1187:B2 *1188:A2 0
10 *1187:B2 *1188:B1 0
11 *1187:B2 *242:75 7.40992e-05
12 *180:12 *1184:A 9.24825e-05
13 *180:12 *1186:A1 5.26091e-05
14 *180:12 *1189:S 0.000150618
15 *180:12 *251:8 2.65105e-05
16 *180:12 *251:15 1.82549e-05
*RES
1 *1184:Y *180:12 24.0679 
2 *180:12 *1187:B2 28.3357 
3 *180:12 *1186:A2 9.3 
*END

*D_NET *181 0.000780496
*CONN
*I *1186:C1 I *D sky130_fd_sc_hd__o211a_1
*I *1185:Y O *D sky130_fd_sc_hd__inv_2
*CAP
1 *1186:C1 0.000262994
2 *1185:Y 0.000262994
3 *1186:C1 *1185:A 2.89114e-05
4 *1186:C1 *1186:A1 5.33334e-05
5 *1186:C1 *1186:B1 2.15824e-05
6 *1186:C1 *1188:B1 9.90431e-05
7 *1186:C1 *250:8 1.92789e-05
8 *1187:B2 *1186:C1 3.23588e-05
*RES
1 *1185:Y *1186:C1 23.5821 
*END

*D_NET *182 0.000544462
*CONN
*I *1188:B1 I *D sky130_fd_sc_hd__o221a_2
*I *1186:X O *D sky130_fd_sc_hd__o211a_1
*CAP
1 *1188:B1 0.000166795
2 *1186:X 0.000166795
3 *1188:B1 *1187:B1 6.26774e-06
4 *1188:B1 *1188:A2 1.76039e-05
5 *1188:B1 *184:12 3.82227e-06
6 *1186:C1 *1188:B1 9.90431e-05
7 *1187:B2 *1188:B1 0
8 *93:147 *1188:B1 5.01213e-05
9 *93:164 *1188:B1 3.40128e-05
*RES
1 *1186:X *1188:B1 30.6223 
*END

*D_NET *183 0.0012275
*CONN
*I *1188:B2 I *D sky130_fd_sc_hd__o221a_2
*I *1187:X O *D sky130_fd_sc_hd__a22o_1
*CAP
1 *1188:B2 0.000101131
2 *1187:X 0.000101131
3 *1188:B2 *1187:B1 0.000314799
4 *1188:B2 *184:12 0.000188586
5 *1188:B2 *184:34 0.000355009
6 *1188:A1 *1188:B2 9.77264e-06
7 *1188:C1 *1188:B2 1.3701e-05
8 *179:8 *1188:B2 0.000143375
*RES
1 *1187:X *1188:B2 24.0821 
*END

*D_NET *184 0.00644633
*CONN
*I *1205:S I *D sky130_fd_sc_hd__mux2_1
*I *1209:S I *D sky130_fd_sc_hd__mux2_1
*I *1207:S I *D sky130_fd_sc_hd__mux2_1
*I *1191:S I *D sky130_fd_sc_hd__mux2_1
*I *1189:S I *D sky130_fd_sc_hd__mux2_1
*I *1188:X O *D sky130_fd_sc_hd__o221a_2
*CAP
1 *1205:S 0.000244009
2 *1209:S 3.58421e-05
3 *1207:S 0.000197995
4 *1191:S 0
5 *1189:S 0.00027857
6 *1188:X 0
7 *184:49 0.000665525
8 *184:34 0.00125111
9 *184:12 0.000721586
10 *184:4 0.00111045
11 *1189:S *1185:A 0
12 *1189:S *1186:A1 0
13 *1189:S *1189:A1 0.00010326
14 *1205:S *1132:A1 0.000141568
15 *1205:S *1205:A0 9.84673e-05
16 *1205:S *1205:A1 5.49995e-05
17 *1205:S *1209:A1 4.884e-05
18 *1205:S *1362:A 5.10822e-05
19 *1205:S *326:48 2.20477e-05
20 *1207:S *1207:A0 5.49995e-05
21 *1207:S *1308:RESET_B 9.30093e-05
22 *1207:S *256:126 0.000249848
23 *1209:S *1209:A1 1.04232e-05
24 *184:12 *1187:B1 1.32535e-05
25 *184:12 *251:15 2.72859e-05
26 *184:34 *1308:RESET_B 0.000176226
27 *184:49 *1209:A1 2.27416e-05
28 *184:49 *1210:A 1.72894e-05
29 *1188:B1 *184:12 3.82227e-06
30 *1188:B2 *184:12 0.000188586
31 *1188:B2 *184:34 0.000355009
32 *1188:C1 *184:12 1.15299e-05
33 *93:147 *1189:S 0
34 *179:8 *184:34 4.6338e-05
35 *180:12 *1189:S 0.000150618
*RES
1 *1188:X *184:4 9.3 
2 *184:4 *184:12 10.4107 
3 *184:12 *1189:S 18.7821 
4 *184:12 *1191:S 13.8 
5 *184:4 *184:34 14.2679 
6 *184:34 *1207:S 18.7107 
7 *184:34 *184:49 10.375 
8 *184:49 *1209:S 10.0321 
9 *184:49 *1205:S 23.675 
*END

*D_NET *185 0.000579684
*CONN
*I *1190:A I *D sky130_fd_sc_hd__clkbuf_1
*I *1189:X O *D sky130_fd_sc_hd__mux2_1
*CAP
1 *1190:A 0.000261494
2 *1189:X 0.000261494
3 *1190:A *249:14 5.66971e-05
*RES
1 *1189:X *1190:A 32.3321 
*END

*D_NET *186 0.000644174
*CONN
*I *1192:A I *D sky130_fd_sc_hd__clkbuf_1
*I *1191:X O *D sky130_fd_sc_hd__mux2_1
*CAP
1 *1192:A 0.000273871
2 *1191:X 0.000273871
3 *1192:A *1184:A 0
4 *1192:A *1191:A0 0
5 *1192:A *242:85 0
6 *1192:A *251:8 5.71472e-05
7 *1307:D *1192:A 3.92854e-05
*RES
1 *1191:X *1192:A 32.5107 
*END

*D_NET *187 0.000146464
*CONN
*I *1195:A I *D sky130_fd_sc_hd__clkbuf_1
*I *1194:X O *D sky130_fd_sc_hd__mux2_1
*CAP
1 *1195:A 7.32319e-05
2 *1194:X 7.32319e-05
*RES
1 *1194:X *1195:A 19.8679 
*END

*D_NET *188 0.00119918
*CONN
*I *1197:A I *D sky130_fd_sc_hd__clkbuf_1
*I *1196:X O *D sky130_fd_sc_hd__mux2_1
*CAP
1 *1197:A 0.000452752
2 *1196:X 0.000452752
3 *1197:A *1310:CLK 4.15914e-05
4 *1197:A *243:8 9.33978e-07
5 *1197:A *256:234 0
6 *1197:A *325:76 2.59355e-05
7 *1197:A *326:35 7.83587e-05
8 *1196:S *1197:A 4.16984e-05
9 *1310:D *1197:A 0.000105163
*RES
1 *1196:X *1197:A 34.6714 
*END

*D_NET *189 0.00074655
*CONN
*I *1199:A I *D sky130_fd_sc_hd__clkbuf_1
*I *1198:X O *D sky130_fd_sc_hd__mux2_1
*CAP
1 *1199:A 0.000354984
2 *1198:X 0.000354984
3 *173:30 *1199:A 3.65822e-05
*RES
1 *1198:X *1199:A 32.2429 
*END

*D_NET *190 0.000979902
*CONN
*I *1201:A I *D sky130_fd_sc_hd__clkbuf_1
*I *1200:X O *D sky130_fd_sc_hd__mux2_1
*CAP
1 *1201:A 0.000349426
2 *1200:X 0.000349426
3 *1201:A *1312:CLK 9.66977e-05
4 *1201:A *253:12 1.91807e-05
5 *1129:C1 *1201:A 7.0101e-05
6 *1312:D *1201:A 1.24368e-05
7 *145:39 *1201:A 8.2634e-05
*RES
1 *1200:X *1201:A 32.9214 
*END

*D_NET *191 0.000631247
*CONN
*I *1203:A I *D sky130_fd_sc_hd__clkbuf_1
*I *1202:X O *D sky130_fd_sc_hd__mux2_1
*CAP
1 *1203:A 0.000201497
2 *1202:X 0.000201497
3 *1203:A *1126:A 0
4 *1203:A *254:10 0
5 *1203:A *255:23 0.000186662
6 *1313:D *1203:A 4.15914e-05
*RES
1 *1202:X *1203:A 31.0107 
*END

*D_NET *192 0.000915137
*CONN
*I *1206:A I *D sky130_fd_sc_hd__clkbuf_1
*I *1205:X O *D sky130_fd_sc_hd__mux2_1
*CAP
1 *1206:A 0.00030467
2 *1205:X 0.00030467
3 *1206:A *243:43 5.12583e-05
4 *1206:A *256:150 7.36469e-05
5 *1206:A *326:48 0.000132905
6 *1315:D *1206:A 4.79864e-05
*RES
1 *1205:X *1206:A 33.6893 
*END

*D_NET *193 0.0007861
*CONN
*I *1208:A I *D sky130_fd_sc_hd__clkbuf_1
*I *1207:X O *D sky130_fd_sc_hd__mux2_1
*CAP
1 *1208:A 0.000319747
2 *1207:X 0.000319747
3 *1208:A *1176:B1 1.59373e-05
4 *1208:A *1306:RESET_B 2.26669e-05
5 *1208:A *242:60 5.08827e-05
6 *1316:D *1208:A 5.7119e-05
*RES
1 *1207:X *1208:A 24.1 
*END

*D_NET *194 0.000317584
*CONN
*I *1210:A I *D sky130_fd_sc_hd__clkbuf_1
*I *1209:X O *D sky130_fd_sc_hd__mux2_1
*CAP
1 *1210:A 0.000150147
2 *1209:X 0.000150147
3 *1210:A *1308:RESET_B 0
4 *1210:A *243:86 0
5 *184:49 *1210:A 1.72894e-05
*RES
1 *1209:X *1210:A 30.0821 
*END

*D_NET *195 0.000715881
*CONN
*I *1212:A I *D sky130_fd_sc_hd__clkbuf_1
*I *1211:X O *D sky130_fd_sc_hd__mux2_1
*CAP
1 *1212:A 0.00024778
2 *1211:X 0.00024778
3 *1212:A *1211:A1 6.3492e-05
4 *1212:A *371:10 9.11048e-06
5 *1212:A *371:12 0.000147718
*RES
1 *1211:X *1212:A 31.725 
*END

*D_NET *196 0.000825505
*CONN
*I *1390:A I *D sky130_fd_sc_hd__dlygate4sd3_1
*I *1213:X O *D sky130_fd_sc_hd__mux2_1
*CAP
1 *1390:A 0.000325145
2 *1213:X 0.000325145
3 *1390:A *1318:CLK 0.000140985
4 *1390:A *371:10 3.42301e-05
*RES
1 *1213:X *1390:A 33.0286 
*END

*D_NET *197 0.000638244
*CONN
*I *1385:A I *D sky130_fd_sc_hd__dlygate4sd3_1
*I *1215:X O *D sky130_fd_sc_hd__mux2_1
*CAP
1 *1385:A 0.000229037
2 *1215:X 0.000229037
3 *1385:A *1134:A0 2.34612e-05
4 *1385:A *1289:RESET_B 5.79792e-05
5 *1385:A *256:280 4.79864e-05
6 *1385:A *256:287 5.07426e-05
*RES
1 *1215:X *1385:A 32.2071 
*END

*D_NET *198 0.00124688
*CONN
*I *1218:A I *D sky130_fd_sc_hd__clkbuf_1
*I *1217:X O *D sky130_fd_sc_hd__mux2_1
*CAP
1 *1218:A 0.000374607
2 *1217:X 0.000374607
3 *1218:A *1321:CLK 1.17091e-05
4 *1218:A *246:20 1.32293e-05
5 *1218:A *246:26 0.00015692
6 *126:199 *1218:A 0.000315812
*RES
1 *1217:X *1218:A 34.4571 
*END

*D_NET *199 0.000653077
*CONN
*I *1220:A I *D sky130_fd_sc_hd__clkbuf_1
*I *1219:X O *D sky130_fd_sc_hd__mux2_1
*CAP
1 *1220:A 0.000188252
2 *1219:X 0.000188252
3 *1220:A *1205:A0 2.06653e-05
4 *1220:A *1388:A 0.000178501
5 *1219:S *1220:A 7.74068e-05
*RES
1 *1219:X *1220:A 31.5643 
*END

*D_NET *200 0.000596654
*CONN
*I *1387:A I *D sky130_fd_sc_hd__dlygate4sd3_1
*I *1221:X O *D sky130_fd_sc_hd__mux2_1
*CAP
1 *1387:A 0.000298327
2 *1221:X 0.000298327
3 *1387:A *246:26 0
4 *1387:A *246:45 0
5 *126:216 *1387:A 0
*RES
1 *1221:X *1387:A 32.2071 
*END

*D_NET *201 0.000313171
*CONN
*I *1224:A I *D sky130_fd_sc_hd__clkbuf_1
*I *1223:X O *D sky130_fd_sc_hd__mux2_1
*CAP
1 *1224:A 8.41991e-05
2 *1223:X 8.41991e-05
3 *1224:A *1223:A1 0.000144773
*RES
1 *1223:X *1224:A 20.6893 
*END

*D_NET *202 0.00155541
*CONN
*I *1226:A I *D sky130_fd_sc_hd__clkbuf_1
*I *1225:X O *D sky130_fd_sc_hd__mux2_1
*CAP
1 *1226:A 0.000527166
2 *1225:X 0.000527166
3 *1226:A *1225:A1 0
4 *1226:A *1325:CLK 2.98572e-05
5 *1226:A *256:234 4.47364e-05
6 *1226:A *364:8 0.000127589
7 *1226:A *364:23 0.000177268
8 *1325:D *1226:A 0.000121629
*RES
1 *1225:X *1226:A 36.7429 
*END

*D_NET *203 0.000480694
*CONN
*I *1228:A I *D sky130_fd_sc_hd__clkbuf_1
*I *1227:X O *D sky130_fd_sc_hd__mux2_1
*CAP
1 *1228:A 0.000171608
2 *1227:X 0.000171608
3 *1228:A *1326:CLK 9.90431e-05
4 *1228:A *243:62 3.84349e-05
*RES
1 *1227:X *1228:A 30.85 
*END

*D_NET *204 0.000596391
*CONN
*I *1230:A I *D sky130_fd_sc_hd__clkbuf_1
*I *1229:X O *D sky130_fd_sc_hd__mux2_1
*CAP
1 *1230:A 0.000192045
2 *1229:X 0.000192045
3 *1230:A *1229:A1 1.12578e-05
4 *1230:A *244:50 0.000150043
5 *1327:D *1230:A 5.09999e-05
*RES
1 *1229:X *1230:A 31.6714 
*END

*D_NET *205 0.000343793
*CONN
*I *1232:A I *D sky130_fd_sc_hd__clkbuf_1
*I *1231:X O *D sky130_fd_sc_hd__mux2_1
*CAP
1 *1232:A 0.000101443
2 *1231:X 0.000101443
3 *126:25 *1232:A 0.000140907
*RES
1 *1231:X *1232:A 20.6893 
*END

*D_NET *206 0.00100423
*CONN
*I *1380:A I *D sky130_fd_sc_hd__dlygate4sd3_1
*I *1233:X O *D sky130_fd_sc_hd__mux2_1
*CAP
1 *1380:A 0.000260704
2 *1233:X 0.000260704
3 *1380:A *1091:A_N 6.98806e-05
4 *1380:A *1233:A0 2.59355e-05
5 *1380:A *363:8 1.74352e-05
6 *1380:A *363:12 3.80667e-05
7 *1233:S *1380:A 2.65105e-05
8 *126:115 *1380:A 0.000304996
*RES
1 *1233:X *1380:A 33.4393 
*END

*D_NET *207 0.00109128
*CONN
*I *1373:A I *D sky130_fd_sc_hd__dlygate4sd3_1
*I *1235:X O *D sky130_fd_sc_hd__mux2_1
*CAP
1 *1373:A 0.000406975
2 *1235:X 0.000406975
3 *1373:A *1235:A0 7.74135e-05
4 *1373:A *359:12 0.000151314
5 *1235:S *1373:A 4.85984e-05
*RES
1 *1235:X *1373:A 34.7964 
*END

*D_NET *208 0.00076826
*CONN
*I *1364:A I *D sky130_fd_sc_hd__dlygate4sd3_1
*I *1237:X O *D sky130_fd_sc_hd__mux2_1
*CAP
1 *1364:A 0.000208794
2 *1237:X 0.000208794
3 *1364:A *1237:A0 9.84673e-05
4 *1364:A *1237:A1 3.37927e-05
5 *1364:A *1238:A 3.50746e-05
6 *1235:S *1364:A 9.15842e-06
7 *1331:D *1364:A 3.46801e-05
8 *126:130 *1364:A 0.000139499
*RES
1 *1237:X *1364:A 32.5643 
*END

*D_NET *209 0.000440927
*CONN
*I *1407:A I *D sky130_fd_sc_hd__dlygate4sd3_1
*I *1239:X O *D sky130_fd_sc_hd__mux2_1
*CAP
1 *1407:A 0.000170381
2 *1239:X 0.000170381
3 *1407:A *1406:A 0.000100165
*RES
1 *1239:X *1407:A 30.1893 
*END

*D_NET *210 0.000649583
*CONN
*I *1242:A I *D sky130_fd_sc_hd__clkbuf_1
*I *1241:X O *D sky130_fd_sc_hd__mux2_1
*CAP
1 *1242:A 0.000157938
2 *1241:X 0.000157938
3 *1242:A *256:353 0.000132198
4 *1242:A *256:355 5.47763e-05
5 *1333:D *1242:A 6.5185e-05
6 *30:10 *1242:A 8.15465e-05
*RES
1 *1241:X *1242:A 32.5107 
*END

*D_NET *211 0.0011057
*CONN
*I *1244:A I *D sky130_fd_sc_hd__clkbuf_1
*I *1243:X O *D sky130_fd_sc_hd__mux2_1
*CAP
1 *1244:A 0.000305215
2 *1243:X 0.000305215
3 *1244:A *247:64 7.57312e-05
4 *1244:A *247:68 4.02873e-05
5 *1243:S *1244:A 0.000140933
6 *1334:D *1244:A 0.00013921
7 *30:58 *1244:A 9.91086e-05
*RES
1 *1243:X *1244:A 33.3143 
*END

*D_NET *212 0.000767142
*CONN
*I *1246:A I *D sky130_fd_sc_hd__clkbuf_1
*I *1245:X O *D sky130_fd_sc_hd__mux2_1
*CAP
1 *1246:A 0.00023351
2 *1245:X 0.00023351
3 *1246:A *247:68 4.0284e-05
4 *1245:A1 *1246:A 2.1768e-05
5 *1335:D *1246:A 0.000138961
6 *1336:D *1246:A 9.91086e-05
*RES
1 *1245:X *1246:A 32.0821 
*END

*D_NET *213 0.00466763
*CONN
*I *1248:A2 I *D sky130_fd_sc_hd__o21ai_1
*I *1276:A3 I *D sky130_fd_sc_hd__o31a_1
*I *1247:Y O *D sky130_fd_sc_hd__nand2_1
*CAP
1 *1248:A2 0.000788333
2 *1276:A3 0.000196317
3 *1247:Y 0.000380453
4 *213:14 0.0013651
5 *1248:A2 *256:465 0.000130738
6 *1276:A3 *1118:A2 1.60094e-05
7 *1276:A3 *1276:B1 2.97456e-05
8 *213:14 *1247:A 4.91306e-05
9 *213:14 *256:459 4.04359e-05
10 *213:14 *256:465 5.56517e-05
11 *1089:B1 *1276:A3 9.25014e-06
12 *1123:A1 *1276:A3 6.05161e-06
13 *1123:A1 *213:14 1.24368e-05
14 *1124:C1 *1248:A2 0.000943741
15 *1124:D1 *1248:A2 0.000124389
16 *1124:D1 *1276:A3 9.59532e-06
17 *1124:D1 *213:14 0.000228902
18 *1125:A2 *1248:A2 0.00014462
19 *1247:B *213:14 2.66851e-07
20 *1248:A1 *1248:A2 1.24368e-05
21 *1251:A1 *1276:A3 8.78238e-05
22 *1269:A1 *1248:A2 0
23 *124:38 *1248:A2 5.58875e-06
24 *129:16 *1248:A2 0
25 *135:15 *1248:A2 1.56e-05
26 *137:37 *1276:A3 1.5006e-05
*RES
1 *1247:Y *213:14 20.0376 
2 *213:14 *1276:A3 20.6118 
3 *213:14 *1248:A2 30.933 
*END

*D_NET *214 0.0029614
*CONN
*I *1249:A1 I *D sky130_fd_sc_hd__mux2_1
*I *1248:Y O *D sky130_fd_sc_hd__o21ai_1
*CAP
1 *1249:A1 0.000935988
2 *1248:Y 0.000935988
3 *1249:A1 *1249:A0 5.65955e-05
4 *1249:A1 *1272:B 0.000487845
5 *1249:A1 *1344:RESET_B 0
6 *1249:A1 *245:14 3.27461e-05
7 *1249:A1 *245:34 0.000271904
8 *1249:A1 *256:480 0
9 *1271:A1 *1249:A1 7.77116e-06
10 *1271:A2 *1249:A1 2.57503e-05
11 *1345:D *1249:A1 0.000193475
12 *135:15 *1249:A1 1.33343e-05
*RES
1 *1248:Y *1249:A1 43.4036 
*END

*D_NET *215 0.000372241
*CONN
*I *1250:A I *D sky130_fd_sc_hd__clkbuf_1
*I *1249:X O *D sky130_fd_sc_hd__mux2_1
*CAP
1 *1250:A 0.000130641
2 *1249:X 0.000130641
3 *1250:A *1337:CLK 5.49489e-05
4 *1250:A *245:14 5.60103e-05
*RES
1 *1249:X *1250:A 30.0821 
*END

*D_NET *216 0.00548978
*CONN
*I *1252:A1 I *D sky130_fd_sc_hd__mux2_1
*I *1251:Y O *D sky130_fd_sc_hd__a21oi_1
*CAP
1 *1252:A1 1.42885e-05
2 *1251:Y 0.00178137
3 *216:18 0.00179566
4 *1252:A1 *1249:A0 5.33005e-05
5 *216:18 *1114:A 5.22622e-05
6 *216:18 *1253:A 0.000187893
7 *216:18 *1337:RESET_B 0.00017309
8 *216:18 *256:355 9.18193e-05
9 *216:18 *256:357 0.000650854
10 *1125:A2 *216:18 3.80385e-05
11 *1125:B1 *216:18 8.43535e-06
12 *1251:A2 *216:18 2.04681e-05
13 *1252:S *1252:A1 5.52238e-05
14 *30:20 *216:18 0
15 *124:44 *216:18 9.94988e-05
16 *129:6 *216:18 4.51148e-05
17 *129:14 *216:18 0.000182857
18 *137:14 *216:18 0.000227179
19 *137:20 *216:18 1.24368e-05
*RES
1 *1251:Y *216:18 49.7464 
2 *216:18 *1252:A1 9.83571 
*END

*D_NET *217 0.000760644
*CONN
*I *1253:A I *D sky130_fd_sc_hd__clkbuf_1
*I *1252:X O *D sky130_fd_sc_hd__mux2_1
*CAP
1 *1253:A 0.000177441
2 *1252:X 0.000177441
3 *1253:A *1249:A0 5.62995e-05
4 *1338:D *1253:A 6.97972e-05
5 *30:20 *1253:A 9.17732e-05
6 *216:18 *1253:A 0.000187893
*RES
1 *1252:X *1253:A 32.9214 
*END

*D_NET *218 0.000515421
*CONN
*I *1255:A I *D sky130_fd_sc_hd__clkbuf_1
*I *1254:X O *D sky130_fd_sc_hd__mux2_1
*CAP
1 *1255:A 0.000209107
2 *1254:X 0.000209107
3 *1255:A *245:52 4.70271e-05
4 *1254:A1 *1255:A 5.018e-05
*RES
1 *1254:X *1255:A 30.9036 
*END

*D_NET *219 0.00338255
*CONN
*I *1267:C I *D sky130_fd_sc_hd__or4_1
*I *1266:A2 I *D sky130_fd_sc_hd__o31ai_1
*I *1264:C1 I *D sky130_fd_sc_hd__a211o_1
*I *1261:B I *D sky130_fd_sc_hd__nor2_1
*I *1257:C I *D sky130_fd_sc_hd__or3_1
*I *1258:A2 I *D sky130_fd_sc_hd__o21ai_1
*I *1256:Y O *D sky130_fd_sc_hd__nand2_2
*CAP
1 *1267:C 0.000103998
2 *1266:A2 2.59909e-05
3 *1264:C1 0.000116113
4 *1261:B 8.67552e-05
5 *1257:C 0
6 *1258:A2 5.05023e-05
7 *1256:Y 6.70618e-05
8 *219:58 0.000195937
9 *219:43 0.000267321
10 *219:28 0.000237878
11 *219:19 0.000150856
12 *219:8 0.000202557
13 *1258:A2 *247:8 1.07719e-05
14 *1261:B *1265:A2 1.35465e-05
15 *1264:C1 *1264:A1 3.49456e-06
16 *1264:C1 *1265:B1 6.05161e-06
17 *1266:A2 *1267:D 1.05468e-05
18 *1267:C *1267:D 0.000108329
19 *219:19 *1259:C 7.89362e-05
20 *1258:B1 *219:19 2.18295e-05
21 *1264:B1 *1264:C1 5.49995e-05
22 *1265:C1 *219:19 1.90223e-05
23 *1265:C1 *219:28 8.7392e-05
24 *1265:C1 *219:43 2.2918e-05
25 *99:14 *1264:C1 0.000264533
26 *102:18 *1267:C 1.4796e-05
27 *102:28 *1264:C1 1.62025e-05
28 *105:16 *219:8 0.000128146
29 *105:16 *219:19 0.000237245
30 *105:16 *219:28 0.000161604
31 *105:16 *219:43 0.000182909
32 *105:16 *219:58 0.000112773
33 *127:60 *219:8 0
34 *127:60 *219:19 0
35 *139:46 *1261:B 1.24368e-05
36 *139:61 *1261:B 4.25684e-05
37 *139:61 *219:43 0.000146991
38 *139:61 *219:58 0.000119535
*RES
1 *1256:Y *219:8 15.4429 
2 *219:8 *1258:A2 14.3357 
3 *219:8 *219:19 3.16071 
4 *219:19 *1257:C 13.8 
5 *219:19 *219:28 2.25 
6 *219:28 *1261:B 15.6036 
7 *219:28 *219:43 2.55357 
8 *219:43 *1264:C1 16.8179 
9 *219:43 *219:58 6.75 
10 *219:58 *1266:A2 9.63036 
11 *219:58 *1267:C 11.5143 
*END

*D_NET *220 0.000241803
*CONN
*I *1259:B I *D sky130_fd_sc_hd__and3_1
*I *1257:X O *D sky130_fd_sc_hd__or3_1
*CAP
1 *1259:B 0.000110323
2 *1257:X 0.000110323
3 *1259:B *1259:C 8.16722e-06
4 *1265:C1 *1259:B 1.29901e-05
*RES
1 *1257:X *1259:B 19.9571 
*END

*D_NET *221 0.000760721
*CONN
*I *1259:C I *D sky130_fd_sc_hd__and3_1
*I *1258:Y O *D sky130_fd_sc_hd__o21ai_1
*CAP
1 *1259:C 0.000241569
2 *1258:Y 0.000241569
3 *1258:B1 *1259:C 4.74517e-05
4 *1259:B *1259:C 8.16722e-06
5 *1265:C1 *1259:C 0.000139338
6 *98:72 *1259:C 3.69047e-06
7 *219:19 *1259:C 7.89362e-05
*RES
1 *1258:Y *1259:C 31.2964 
*END

*D_NET *222 0.000189064
*CONN
*I *1260:A I *D sky130_fd_sc_hd__clkbuf_1
*I *1259:X O *D sky130_fd_sc_hd__and3_1
*CAP
1 *1260:A 9.45318e-05
2 *1259:X 9.45318e-05
*RES
1 *1259:X *1260:A 20.2786 
*END

*D_NET *223 0.00049535
*CONN
*I *1265:A2 I *D sky130_fd_sc_hd__o211a_1
*I *1261:Y O *D sky130_fd_sc_hd__nor2_1
*CAP
1 *1265:A2 0.000208254
2 *1261:Y 0.000208254
3 *1261:B *1265:A2 1.35465e-05
4 *1265:C1 *1265:A2 5.92441e-05
5 *139:61 *1265:A2 6.05161e-06
*RES
1 *1261:Y *1265:A2 30.6 
*END

*D_NET *224 0.00108853
*CONN
*I *1267:D I *D sky130_fd_sc_hd__or4_1
*I *1266:A3 I *D sky130_fd_sc_hd__o31ai_1
*I *1264:A1 I *D sky130_fd_sc_hd__a211o_1
*I *1262:Y O *D sky130_fd_sc_hd__nand2_1
*CAP
1 *1267:D 7.27327e-05
2 *1266:A3 0
3 *1264:A1 0.00010969
4 *1262:Y 4.84939e-05
5 *224:21 9.02631e-05
6 *224:6 0.000175714
7 *224:6 *1262:A 2.11336e-05
8 *1264:C1 *1264:A1 3.49456e-06
9 *1266:A2 *1267:D 1.05468e-05
10 *1267:A *1267:D 3.99614e-06
11 *1267:C *1267:D 0.000108329
12 *102:18 *1267:D 9.61075e-05
13 *102:18 *224:6 2.59355e-05
14 *102:18 *224:21 2.85321e-05
15 *102:28 *1264:A1 0.000124012
16 *105:16 *1264:A1 7.74068e-05
17 *105:16 *224:6 7.22574e-05
18 *105:16 *224:21 1.98839e-05
*RES
1 *1262:Y *224:6 10.6571 
2 *224:6 *1264:A1 20.9786 
3 *224:6 *224:21 0.535714 
4 *224:21 *1266:A3 9.3 
5 *224:21 *1267:D 11.4964 
*END

*D_NET *225 0.000421677
*CONN
*I *1264:A2 I *D sky130_fd_sc_hd__a211o_1
*I *1263:X O *D sky130_fd_sc_hd__or2_1
*CAP
1 *1264:A2 0.000107738
2 *1263:X 0.000107738
3 *1264:B1 *1264:A2 5.83677e-05
4 *105:16 *1264:A2 0.000121897
5 *139:46 *1264:A2 2.59355e-05
*RES
1 *1263:X *1264:A2 29.7786 
*END

*D_NET *226 0.000279811
*CONN
*I *1265:B1 I *D sky130_fd_sc_hd__o211a_1
*I *1264:X O *D sky130_fd_sc_hd__a211o_1
*CAP
1 *1265:B1 8.9247e-05
2 *1264:X 8.9247e-05
3 *1264:C1 *1265:B1 6.05161e-06
4 *1265:C1 *1265:B1 5.33005e-05
5 *99:8 *1265:B1 1.32693e-05
6 *99:14 *1265:B1 2.86952e-05
*RES
1 *1264:X *1265:B1 20.3857 
*END

*D_NET *227 0.000403019
*CONN
*I *1268:A1 I *D sky130_fd_sc_hd__a21oi_1
*I *1266:Y O *D sky130_fd_sc_hd__o31ai_1
*CAP
1 *1268:A1 0.000111847
2 *1266:Y 0.000111847
3 *1268:A1 *1268:A2 7.83659e-05
4 *102:18 *1268:A1 0.00010096
*RES
1 *1266:Y *1268:A1 29.5821 
*END

*D_NET *228 0.000973788
*CONN
*I *1268:A2 I *D sky130_fd_sc_hd__a21oi_1
*I *1267:X O *D sky130_fd_sc_hd__or4_1
*CAP
1 *1268:A2 0.000267823
2 *1267:X 0.000267823
3 *1268:A2 *1342:CLK 0
4 *1268:A2 *256:315 1.41706e-05
5 *1268:A1 *1268:A2 7.83659e-05
6 *1268:B1 *1268:A2 1.41706e-05
7 *102:14 *1268:A2 9.90367e-05
8 *102:18 *1268:A2 0.000232399
*RES
1 *1267:X *1268:A2 32.2429 
*END

*D_NET *229 0.000127418
*CONN
*I *1270:B I *D sky130_fd_sc_hd__nand2_1
*I *1269:Y O *D sky130_fd_sc_hd__o21ai_1
*CAP
1 *1270:B 4.98376e-05
2 *1269:Y 4.98376e-05
3 *1270:B *375:12 1.40415e-05
4 *1121:A2 *1270:B 1.3701e-05
*RES
1 *1269:Y *1270:B 19.5643 
*END

*D_NET *230 0.00105834
*CONN
*I *1272:B I *D sky130_fd_sc_hd__nand2_1
*I *1271:Y O *D sky130_fd_sc_hd__o21ai_1
*CAP
1 *1272:B 0.000114088
2 *1271:Y 0.000114088
3 *1272:B *1271:B1 3.18676e-05
4 *1272:B *1405:A 1.90111e-05
5 *1249:A1 *1272:B 0.000487845
6 *1272:A *1272:B 0.000270653
7 *1345:D *1272:B 2.07878e-05
*RES
1 *1271:Y *1272:B 23.6714 
*END

*D_NET *231 0.0013846
*CONN
*I *1274:B I *D sky130_fd_sc_hd__or2_1
*I *1273:X O *D sky130_fd_sc_hd__o31a_1
*CAP
1 *1274:B 0.000579958
2 *1273:X 0.000579958
3 *99:57 *1274:B 0.000147682
4 *129:52 *1274:B 7.70035e-05
*RES
1 *1273:X *1274:B 36.4929 
*END

*D_NET *232 0.000555586
*CONN
*I *1275:A I *D sky130_fd_sc_hd__clkbuf_1
*I *1274:X O *D sky130_fd_sc_hd__or2_1
*CAP
1 *1275:A 0.000230679
2 *1274:X 0.000230679
3 *99:57 *1275:A 4.96701e-05
4 *126:40 *1275:A 4.45572e-05
*RES
1 *1274:X *1275:A 31.3143 
*END

*D_NET *233 0.000952261
*CONN
*I *1277:B I *D sky130_fd_sc_hd__or2_1
*I *1276:X O *D sky130_fd_sc_hd__o31a_1
*CAP
1 *1277:B 0.000214318
2 *1276:X 0.000214318
3 *1277:B *256:459 7.92423e-05
4 *1277:B *355:48 0.000287842
5 *1123:A1 *1277:B 9.35114e-06
6 *1124:D1 *1277:B 2.59355e-05
7 *1347:D *1277:B 0.000121254
*RES
1 *1276:X *1277:B 32.3143 
*END

*D_NET *234 0.000718663
*CONN
*I *1278:A I *D sky130_fd_sc_hd__clkbuf_1
*I *1277:X O *D sky130_fd_sc_hd__or2_1
*CAP
1 *1278:A 0.000197961
2 *1277:X 0.000197961
3 *1278:A *1360:A 0.000228059
4 *1347:D *1278:A 6.77328e-05
5 *1433:A *1278:A 2.6949e-05
*RES
1 *1277:X *1278:A 32.1357 
*END

*D_NET *235 0.000339771
*CONN
*I *1280:B I *D sky130_fd_sc_hd__or2_1
*I *1279:Y O *D sky130_fd_sc_hd__a21oi_1
*CAP
1 *1280:B 9.41462e-05
2 *1279:Y 9.41462e-05
3 *1111:A *1280:B 7.85137e-05
4 *130:23 *1280:B 7.29646e-05
*RES
1 *1279:Y *1280:B 29.6714 
*END

*D_NET *236 0.000591985
*CONN
*I *1281:A I *D sky130_fd_sc_hd__clkbuf_1
*I *1280:X O *D sky130_fd_sc_hd__or2_1
*CAP
1 *1281:A 0.000244043
2 *1280:X 0.000244043
3 *1280:A *1281:A 2.84109e-05
4 *126:64 *1281:A 7.54868e-05
5 *127:60 *1281:A 0
*RES
1 *1280:X *1281:A 31.0107 
*END

*D_NET *237 0.000170678
*CONN
*I *1284:B I *D sky130_fd_sc_hd__nor2_1
*I *1283:Y O *D sky130_fd_sc_hd__a21oi_1
*CAP
1 *1284:B 4.93743e-05
2 *1283:Y 4.93743e-05
3 *1284:B *1283:A2 4.01118e-05
4 *1284:B *291:12 2.84026e-05
5 *1077:A *1284:B 3.41517e-06
*RES
1 *1283:Y *1284:B 19.9929 
*END

*D_NET *238 0.000859826
*CONN
*I *1286:B I *D sky130_fd_sc_hd__nor2_1
*I *1285:Y O *D sky130_fd_sc_hd__nor2_1
*CAP
1 *1286:B 0.000189972
2 *1285:Y 0.000189972
3 *1286:B *1351:RESET_B 3.39771e-05
4 *1286:B *240:38 0
5 *1286:B *240:51 0
6 *1286:B *256:621 0
7 *1286:A *1286:B 0.000349377
8 *1351:D *1286:B 9.65279e-05
*RES
1 *1285:Y *1286:B 32.6179 
*END

*D_NET *239 0.0170348
*CONN
*I *1360:A I *D sky130_fd_sc_hd__clkbuf_16
*I *1359:A I *D sky130_fd_sc_hd__clkbuf_16
*I *1356:A I *D sky130_fd_sc_hd__clkbuf_16
*I *1353:A I *D sky130_fd_sc_hd__clkbuf_16
*I *1354:A I *D sky130_fd_sc_hd__clkbuf_16
*I *1355:A I *D sky130_fd_sc_hd__clkbuf_16
*I *1358:A I *D sky130_fd_sc_hd__clkbuf_16
*I *1357:A I *D sky130_fd_sc_hd__clkbuf_16
*I *1352:X O *D sky130_fd_sc_hd__clkbuf_16
*CAP
1 *1360:A 0.000214013
2 *1359:A 6.95616e-05
3 *1356:A 0
4 *1353:A 0.000309471
5 *1354:A 0.000179982
6 *1355:A 0.000355671
7 *1358:A 0.000991926
8 *1357:A 0.000163372
9 *1352:X 0
10 *239:122 0.000838447
11 *239:87 0.00144063
12 *239:64 0.00130685
13 *239:62 0.00197569
14 *239:50 0.00273366
15 *239:18 0.00240934
16 *239:6 0.00145714
17 *1354:A *256:621 0.000250915
18 *1355:A *1174:A1 0
19 *1357:A *1233:A1 5.71472e-05
20 *239:18 *1225:A0 7.24849e-05
21 *239:50 *1106:B 0.000269882
22 *239:50 *1225:A0 9.30022e-05
23 *239:50 *256:246 5.58875e-06
24 *239:62 *1310:CLK 2.11372e-05
25 *239:87 *256:621 0.000101545
26 *239:122 *256:246 2.09138e-05
27 *1096:B *1358:A 0.00013801
28 *1097:B *1358:A 0
29 *1107:A *239:122 0.000269428
30 *1108:C1 *239:50 0
31 *1108:D1 *239:122 4.30382e-05
32 *1171:A1 *1355:A 3.67252e-05
33 *1171:B1 *1355:A 3.63688e-05
34 *1171:B2 *1355:A 2.68187e-05
35 *1171:C1 *1355:A 0.00013314
36 *1174:S *1355:A 1.62621e-05
37 *1278:A *1360:A 0.000228059
38 *1296:D *239:87 0.000101908
39 *1304:D *239:87 1.27078e-05
40 *1352:A *239:18 0
41 *93:120 *1355:A 6.8646e-06
42 *93:139 *1355:A 1.19402e-05
43 *98:12 *1359:A 3.45899e-05
44 *98:14 *1359:A 0.000102007
45 *99:43 *239:122 0
46 *99:57 *239:18 0
47 *99:57 *239:50 0
48 *173:8 *1355:A 0.000400221
49 *173:30 *1355:A 9.83388e-05
*RES
1 *1352:X *239:6 13.8 
2 *239:6 *239:18 13.8008 
3 *239:18 *1357:A 18.2497 
4 *239:18 *1358:A 21.9582 
5 *239:6 *239:50 4.83036 
6 *239:50 *239:62 19.7108 
7 *239:62 *239:64 4.5 
8 *239:64 *1355:A 31.2643 
9 *239:64 *239:87 17.0536 
10 *239:87 *1354:A 17.9071 
11 *239:87 *1353:A 18.4429 
12 *239:62 *1356:A 9.3 
13 *239:50 *239:122 14.1518 
14 *239:122 *1359:A 19.9429 
15 *239:122 *1360:A 13.1214 
*END

*D_NET *240 0.0164037
*CONN
*I *1295:CLK I *D sky130_fd_sc_hd__dfrtp_1
*I *1287:CLK I *D sky130_fd_sc_hd__dfrtp_1
*I *1350:CLK I *D sky130_fd_sc_hd__dfrtp_4
*I *1292:CLK I *D sky130_fd_sc_hd__dfrtp_1
*I *1291:CLK I *D sky130_fd_sc_hd__dfrtp_1
*I *1349:CLK I *D sky130_fd_sc_hd__dfrtp_4
*I *1296:CLK I *D sky130_fd_sc_hd__dfrtp_1
*I *1304:CLK I *D sky130_fd_sc_hd__dfrtp_1
*I *1309:CLK I *D sky130_fd_sc_hd__dfrtp_1
*I *1351:CLK I *D sky130_fd_sc_hd__dfrtp_4
*I *1294:CLK I *D sky130_fd_sc_hd__dfrtp_1
*I *1293:CLK I *D sky130_fd_sc_hd__dfrtp_1
*I *1353:X O *D sky130_fd_sc_hd__clkbuf_16
*CAP
1 *1295:CLK 0.000720075
2 *1287:CLK 6.56943e-05
3 *1350:CLK 0
4 *1292:CLK 0.000214788
5 *1291:CLK 0.000423611
6 *1349:CLK 9.81555e-05
7 *1296:CLK 0.000350325
8 *1304:CLK 0
9 *1309:CLK 0.000484594
10 *1351:CLK 0
11 *1294:CLK 0.000238458
12 *1293:CLK 7.86198e-05
13 *1353:X 4.16506e-05
14 *240:107 0.00128842
15 *240:94 0.0010792
16 *240:92 0.000554773
17 *240:90 0.00059679
18 *240:64 0.000448167
19 *240:51 0.00104095
20 *240:38 0.000567511
21 *240:34 0.00063662
22 *240:14 0.000641089
23 *240:12 0.000774723
24 *240:8 0.000992157
25 *1287:CLK *256:621 5.1296e-05
26 *1292:CLK *1140:A 0.000108817
27 *1292:CLK *256:8 0
28 *1292:CLK *256:23 0.000126416
29 *1292:CLK *327:12 5.33882e-05
30 *1294:CLK *281:14 0.000103267
31 *1294:CLK *281:27 0
32 *1295:CLK *1151:A 2.40189e-05
33 *1295:CLK *1155:A1 0.000191877
34 *1295:CLK *1157:A0 0.000171355
35 *1295:CLK *1295:RESET_B 8.92486e-05
36 *1295:CLK *256:86 1.46689e-05
37 *1295:CLK *303:27 7.74068e-05
38 *1296:CLK *1304:RESET_B 1.36635e-05
39 *1296:CLK *256:607 6.39452e-06
40 *1309:CLK *1149:A 0.000124749
41 *1309:CLK *1159:A2 0.000105708
42 *240:12 *1155:A1 0.000271951
43 *240:12 *1294:RESET_B 0.000367396
44 *240:14 *1293:RESET_B 9.35501e-05
45 *240:34 *1293:RESET_B 4.17702e-05
46 *240:34 *1372:A 0.000185403
47 *240:34 *329:10 7.15503e-05
48 *240:38 *1372:A 9.57064e-05
49 *240:51 *1149:A 0.000139202
50 *240:51 *1159:A2 7.09928e-05
51 *240:51 *1351:RESET_B 0
52 *240:51 *256:58 0.000345632
53 *240:51 *256:60 6.67983e-05
54 *240:51 *256:607 1.64583e-05
55 *240:51 *314:18 9.77264e-06
56 *240:64 *256:607 7.41875e-05
57 *240:90 *256:621 7.47231e-06
58 *240:92 *1283:A2 0.000243984
59 *240:92 *256:621 7.47864e-06
60 *240:94 *1283:A2 0.000243991
61 *240:94 *256:707 0
62 *1079:A *240:90 0.000143375
63 *1144:S *1292:CLK 0
64 *1153:A1 *240:51 5.33005e-05
65 *1155:S *1295:CLK 0
66 *1155:S *240:12 0
67 *1155:S *240:38 0
68 *1155:S *240:51 0
69 *1156:A *1294:CLK 0
70 *1285:B *240:90 7.11153e-05
71 *1286:A *240:90 5.45307e-05
72 *1286:B *240:38 0
73 *1286:B *240:51 0
74 *1287:D *240:90 9.21933e-05
75 *1291:D *1291:CLK 3.18676e-05
76 *1293:D *1293:CLK 8.86129e-06
77 *1293:D *1294:CLK 3.92854e-05
78 *1293:D *240:14 5.33433e-05
79 *1309:D *1309:CLK 0.000101173
80 *1349:D *1349:CLK 6.58195e-05
81 *1349:D *240:94 8.36642e-05
82 *1419:A *1294:CLK 0
83 *93:23 *240:94 6.69975e-05
84 *93:66 *240:12 0
85 *93:95 *1294:CLK 0
86 *93:95 *1295:CLK 0.000176828
87 *93:95 *240:8 2.89114e-05
88 *93:95 *240:12 0
89 *93:120 *1309:CLK 0
90 *94:25 *240:90 2.84026e-05
91 *94:25 *240:92 4.37079e-05
92 *157:6 *240:51 0.000269378
93 *158:12 *1295:CLK 3.90086e-05
*RES
1 *1353:X *240:8 14.3357 
2 *240:8 *240:12 11 
3 *240:12 *240:14 5.875 
4 *240:14 *1293:CLK 10.6571 
5 *240:14 *1294:CLK 22.9786 
6 *240:12 *240:34 4.64286 
7 *240:34 *240:38 7.05357 
8 *240:38 *1351:CLK 13.8 
9 *240:38 *240:51 15.7321 
10 *240:51 *1309:CLK 27.8357 
11 *240:51 *240:64 2.17857 
12 *240:64 *1304:CLK 9.3 
13 *240:64 *1296:CLK 22.8536 
14 *240:34 *240:90 11.3661 
15 *240:90 *240:92 4.83036 
16 *240:92 *240:94 7.41071 
17 *240:94 *1349:CLK 16.05 
18 *240:94 *240:107 15.3036 
19 *240:107 *1291:CLK 16.4071 
20 *240:107 *1292:CLK 23.2821 
21 *240:92 *1350:CLK 13.8 
22 *240:90 *1287:CLK 15.0232 
23 *240:8 *1295:CLK 29.2286 
*END

*D_NET *241 0.00969665
*CONN
*I *1305:CLK I *D sky130_fd_sc_hd__dfrtp_1
*I *1324:CLK I *D sky130_fd_sc_hd__dfrtp_1
*I *1303:CLK I *D sky130_fd_sc_hd__dfrtp_1
*I *1328:CLK I *D sky130_fd_sc_hd__dfrtp_1
*I *1299:CLK I *D sky130_fd_sc_hd__dfrtp_1
*I *1297:CLK I *D sky130_fd_sc_hd__dfrtp_1
*I *1298:CLK I *D sky130_fd_sc_hd__dfrtp_1
*I *1354:X O *D sky130_fd_sc_hd__clkbuf_16
*CAP
1 *1305:CLK 7.17896e-05
2 *1324:CLK 0.000346957
3 *1303:CLK 0.000263483
4 *1328:CLK 0.000324206
5 *1299:CLK 0.000308205
6 *1297:CLK 0
7 *1298:CLK 0.000669245
8 *1354:X 0.000122203
9 *241:68 0.00081639
10 *241:53 0.000632248
11 *241:18 0.00118382
12 *241:10 0.00109321
13 *241:8 0.000372522
14 *241:6 0.000193992
15 *1298:CLK *1371:A 5.68722e-05
16 *1298:CLK *256:737 9.34765e-05
17 *1299:CLK *1077:B 9.58632e-05
18 *1299:CLK *324:31 9.13509e-05
19 *1299:CLK *325:29 0.000140243
20 *1324:CLK *1194:A0 3.04037e-05
21 *1324:CLK *1324:RESET_B 8.73271e-05
22 *1324:CLK *324:74 0.000188227
23 *1324:CLK *325:61 0.000197385
24 *1328:CLK *1179:A1 1.39841e-05
25 *1328:CLK *1231:A1 1.15281e-05
26 *241:10 *291:12 0
27 *241:10 *298:18 0.000339061
28 *241:10 *325:46 0.000100726
29 *241:10 *326:35 3.34672e-05
30 *241:18 *1349:RESET_B 0
31 *241:18 *256:707 0
32 *241:18 *298:18 0.000297842
33 *241:18 *324:10 0
34 *241:53 *325:46 0.000106552
35 *241:53 *326:35 7.30398e-05
36 *241:68 *324:74 0.00014925
37 *241:68 *325:46 5.66551e-05
38 *241:68 *325:61 0.000410366
39 *241:68 *326:35 0.000151454
40 *1179:S *1328:CLK 0.000434813
41 *1180:A *1328:CLK 0
42 *1297:D *1298:CLK 5.20692e-05
43 *1299:D *1299:CLK 2.11336e-05
44 *1303:D *1303:CLK 4.41588e-05
45 *1324:D *1324:CLK 2.11336e-05
*RES
1 *1354:X *241:6 10.6571 
2 *241:6 *241:8 4.5 
3 *241:8 *241:10 6.80357 
4 *241:10 *241:18 15 
5 *241:18 *1298:CLK 19.3536 
6 *241:18 *1297:CLK 9.3 
7 *241:10 *1299:CLK 19.7107 
8 *241:8 *241:53 2.55357 
9 *241:53 *1328:CLK 19.7107 
10 *241:53 *241:68 7.41071 
11 *241:68 *1303:CLK 17.1214 
12 *241:68 *1324:CLK 21.4429 
13 *241:6 *1305:CLK 10.5679 
*END

*D_NET *242 0.0115338
*CONN
*I *1312:CLK I *D sky130_fd_sc_hd__dfrtp_1
*I *1308:CLK I *D sky130_fd_sc_hd__dfrtp_1
*I *1307:CLK I *D sky130_fd_sc_hd__dfrtp_1
*I *1313:CLK I *D sky130_fd_sc_hd__dfrtp_1
*I *1314:CLK I *D sky130_fd_sc_hd__dfrtp_1
*I *1316:CLK I *D sky130_fd_sc_hd__dfrtp_1
*I *1306:CLK I *D sky130_fd_sc_hd__dfrtp_1
*I *1302:CLK I *D sky130_fd_sc_hd__dfrtp_1
*I *1300:CLK I *D sky130_fd_sc_hd__dfrtp_1
*I *1301:CLK I *D sky130_fd_sc_hd__dfrtp_1
*I *1355:X O *D sky130_fd_sc_hd__clkbuf_16
*CAP
1 *1312:CLK 0.000396163
2 *1308:CLK 0
3 *1307:CLK 0
4 *1313:CLK 0.000247846
5 *1314:CLK 0
6 *1316:CLK 9.15518e-05
7 *1306:CLK 0.000520398
8 *1302:CLK 0
9 *1300:CLK 0.000466225
10 *1301:CLK 0.000174026
11 *1355:X 0
12 *242:85 0.000634394
13 *242:81 0.000964426
14 *242:79 0.000618241
15 *242:75 0.00089787
16 *242:60 0.000862269
17 *242:47 0.000952437
18 *242:36 0.000502041
19 *242:8 0.000722757
20 *242:4 0.00046188
21 *1300:CLK *1300:RESET_B 4.73514e-05
22 *1301:CLK *1168:A 0.000117353
23 *1301:CLK *1301:RESET_B 0
24 *1301:CLK *256:86 3.34366e-05
25 *1301:CLK *256:100 9.30093e-05
26 *1306:CLK *1306:RESET_B 0.000167995
27 *1312:CLK *252:12 0
28 *1312:CLK *253:12 5.33614e-05
29 *1313:CLK *253:12 0.000141036
30 *1316:CLK *1176:A2 2.36364e-05
31 *242:8 *1168:A 3.17163e-05
32 *242:8 *1401:A 0.000100421
33 *242:36 *1401:A 6.2117e-05
34 *242:60 *1176:B1 9.58632e-05
35 *242:60 *1185:A 0
36 *242:60 *1306:RESET_B 7.60816e-05
37 *242:75 *1185:A 0
38 *242:75 *252:12 0
39 *242:79 *256:811 7.03295e-05
40 *242:81 *1184:A 8.37235e-05
41 *242:81 *1307:RESET_B 2.29097e-05
42 *242:81 *256:811 0.000210732
43 *1129:A2 *1312:CLK 0.000182598
44 *1129:C1 *1312:CLK 1.98839e-05
45 *1169:C1 *1301:CLK 0.000264616
46 *1169:C1 *242:8 0.000129852
47 *1172:S *242:36 7.84357e-05
48 *1173:A *1301:CLK 0
49 *1176:A1 *1316:CLK 1.24368e-05
50 *1187:B2 *242:75 7.40992e-05
51 *1192:A *242:85 0
52 *1201:A *1312:CLK 9.66977e-05
53 *1208:A *242:60 5.08827e-05
54 *1302:D *242:47 8.51756e-05
55 *1307:D *242:81 3.53199e-05
56 *1307:D *242:85 0
57 *1308:D *1312:CLK 3.69697e-05
58 *1308:D *242:79 4.92269e-05
59 *1312:D *1312:CLK 2.23592e-05
60 *1412:A *242:85 0
61 *1413:A *1313:CLK 1.32293e-05
62 *93:139 *242:60 0.000196086
63 *93:147 *1316:CLK 1.6132e-05
64 *93:168 *1312:CLK 0.000103745
65 *169:12 *242:36 0.00012249
*RES
1 *1355:X *242:4 9.3 
2 *242:4 *242:8 7.66071 
3 *242:8 *1301:CLK 19.0679 
4 *242:8 *1300:CLK 21.3179 
5 *242:4 *242:36 11.0536 
6 *242:36 *1302:CLK 13.8 
7 *242:36 *242:47 7.05357 
8 *242:47 *1306:CLK 18.8714 
9 *242:47 *242:60 10.25 
10 *242:60 *1316:CLK 15.6036 
11 *242:60 *242:75 6.80357 
12 *242:75 *242:79 5.85714 
13 *242:79 *242:81 10.8036 
14 *242:81 *242:85 11.6071 
15 *242:85 *1314:CLK 13.8 
16 *242:85 *1313:CLK 18.7821 
17 *242:81 *1307:CLK 9.3 
18 *242:79 *1308:CLK 9.3 
19 *242:75 *1312:CLK 22.675 
*END

*D_NET *243 0.0126328
*CONN
*I *1289:CLK I *D sky130_fd_sc_hd__dfrtp_1
*I *1288:CLK I *D sky130_fd_sc_hd__dfrtp_1
*I *1290:CLK I *D sky130_fd_sc_hd__dfrtp_1
*I *1317:CLK I *D sky130_fd_sc_hd__dfrtp_1
*I *1326:CLK I *D sky130_fd_sc_hd__dfrtp_1
*I *1325:CLK I *D sky130_fd_sc_hd__dfrtp_1
*I *1322:CLK I *D sky130_fd_sc_hd__dfrtp_1
*I *1315:CLK I *D sky130_fd_sc_hd__dfrtp_1
*I *1311:CLK I *D sky130_fd_sc_hd__dfrtp_1
*I *1310:CLK I *D sky130_fd_sc_hd__dfrtp_1
*I *1356:X O *D sky130_fd_sc_hd__clkbuf_16
*CAP
1 *1289:CLK 0.000253157
2 *1288:CLK 0.000162744
3 *1290:CLK 6.26622e-05
4 *1317:CLK 0
5 *1326:CLK 5.72388e-05
6 *1325:CLK 0.0003905
7 *1322:CLK 2.00462e-05
8 *1315:CLK 3.95377e-05
9 *1311:CLK 8.34793e-05
10 *1310:CLK 0.000139694
11 *1356:X 8.83617e-05
12 *243:112 0.000672242
13 *243:97 0.000733827
14 *243:86 0.000695097
15 *243:62 0.00104533
16 *243:49 0.000905462
17 *243:43 0.000728431
18 *243:30 0.000425732
19 *243:19 0.000543035
20 *243:8 0.000461751
21 *1288:CLK *1134:A0 9.84451e-05
22 *1288:CLK *1288:RESET_B 0.000267738
23 *1310:CLK *326:35 5.85531e-05
24 *1315:CLK *1207:A0 6.26036e-05
25 *1315:CLK *1207:A1 9.84673e-05
26 *1322:CLK *1205:A0 1.02132e-05
27 *1325:CLK *1391:A 0
28 *1325:CLK *256:234 0.000196183
29 *243:19 *326:35 5.76278e-05
30 *243:19 *326:48 0
31 *243:43 *256:126 0
32 *243:43 *326:48 0
33 *243:49 *1205:A0 0.000679195
34 *243:49 *1219:A0 0.0002317
35 *243:49 *1362:A 0.000271352
36 *243:49 *256:150 9.28237e-05
37 *243:62 *1134:A1 6.53704e-05
38 *243:62 *1205:A0 9.21933e-05
39 *243:62 *1219:A0 0.000185118
40 *243:62 *277:10 0
41 *243:86 *1136:A1 0
42 *243:86 *1209:A0 0.000154762
43 *243:86 *1308:RESET_B 0
44 *243:86 *256:126 0
45 *243:86 *326:48 0
46 *243:97 *1136:A1 0
47 *243:97 *1308:RESET_B 0
48 *243:112 *1134:A1 0.000141729
49 *243:112 *1136:A0 0.000365023
50 *243:112 *1290:RESET_B 4.83849e-05
51 *243:112 *1384:A 4.01264e-05
52 *1134:S *243:112 4.25176e-05
53 *1197:A *1310:CLK 4.15914e-05
54 *1197:A *243:8 9.33978e-07
55 *1206:A *243:43 5.12583e-05
56 *1210:A *243:86 0
57 *1226:A *1325:CLK 2.98572e-05
58 *1228:A *1326:CLK 9.90431e-05
59 *1228:A *243:62 3.84349e-05
60 *1288:D *1288:CLK 7.57394e-05
61 *1289:D *1288:CLK 0.000143967
62 *1289:D *1289:CLK 0.000150019
63 *1290:D *1290:CLK 1.84776e-05
64 *1290:D *243:112 0.000125557
65 *1311:D *1311:CLK 7.88091e-05
66 *1315:D *243:30 9.96487e-05
67 *1315:D *243:43 9.15842e-06
68 *1322:D *243:62 7.54868e-05
69 *1325:D *1325:CLK 3.08664e-05
70 *1326:D *1326:CLK 0.000144074
71 *126:180 *1325:CLK 0
72 *126:180 *243:62 0
73 *145:67 *1290:CLK 0.000100074
74 *145:67 *243:112 0.000530238
75 *239:62 *1310:CLK 2.11372e-05
*RES
1 *1356:X *243:8 14.7464 
2 *243:8 *1310:CLK 16.9607 
3 *243:8 *243:19 4.375 
4 *243:19 *1311:CLK 15.5679 
5 *243:19 *243:30 4.375 
6 *243:30 *1315:CLK 15.175 
7 *243:30 *243:43 3.16071 
8 *243:43 *243:49 13.2679 
9 *243:49 *1322:CLK 9.72857 
10 *243:49 *243:62 16.4107 
11 *243:62 *1325:CLK 20.675 
12 *243:62 *1326:CLK 15.5679 
13 *243:43 *243:86 4.98214 
14 *243:86 *1317:CLK 13.8 
15 *243:86 *243:97 11.9107 
16 *243:97 *1290:CLK 11.0679 
17 *243:97 *243:112 15.0357 
18 *243:112 *1288:CLK 18.7643 
19 *243:112 *1289:CLK 17.8357 
*END

*D_NET *244 0.00965144
*CONN
*I *1346:CLK I *D sky130_fd_sc_hd__dfrtp_1
*I *1327:CLK I *D sky130_fd_sc_hd__dfrtp_1
*I *1329:CLK I *D sky130_fd_sc_hd__dfrtp_1
*I *1332:CLK I *D sky130_fd_sc_hd__dfrtp_1
*I *1330:CLK I *D sky130_fd_sc_hd__dfrtp_1
*I *1331:CLK I *D sky130_fd_sc_hd__dfrtp_1
*I *1357:X O *D sky130_fd_sc_hd__clkbuf_16
*CAP
1 *1346:CLK 0.000115806
2 *1327:CLK 0
3 *1329:CLK 5.00203e-05
4 *1332:CLK 0.000294394
5 *1330:CLK 5.17986e-05
6 *1331:CLK 0.000517655
7 *1357:X 7.17223e-05
8 *244:50 0.000892544
9 *244:46 0.00127254
10 *244:36 0.00112108
11 *244:10 0.0012722
12 *244:8 0.00105533
13 *1329:CLK *1329:RESET_B 2.89114e-05
14 *1330:CLK *1237:A0 0.000171513
15 *1330:CLK *1330:RESET_B 0.000315762
16 *1331:CLK *1160:A0 9.64484e-05
17 *1331:CLK *1330:RESET_B 3.87671e-05
18 *1332:CLK *1332:RESET_B 0
19 *244:8 *1094:B_N 3.67257e-05
20 *244:10 *1091:A_N 8.21535e-05
21 *244:10 *1233:A1 0
22 *244:10 *275:14 3.59945e-05
23 *244:10 *363:12 0.000168777
24 *244:36 *1091:A_N 0.000115474
25 *244:46 *1327:RESET_B 0.000254461
26 *244:46 *361:12 1.73216e-05
27 *244:50 *1181:A0 7.83659e-05
28 *244:50 *1229:A1 0.000150043
29 *244:50 *1234:A 0
30 *244:50 *1327:RESET_B 0
31 *244:50 *256:673 0
32 *244:50 *361:12 0
33 *1230:A *244:50 0.000150043
34 *1235:S *1331:CLK 7.32272e-05
35 *1329:D *1332:CLK 0
36 *1329:D *244:50 0
37 *1332:D *1332:CLK 8.17114e-05
38 *99:57 *1346:CLK 0.000244266
39 *102:38 *1346:CLK 0.000310991
40 *102:38 *244:36 0.000485398
41 *126:115 *244:10 0
42 *126:115 *244:36 0
43 *126:117 *244:10 0
*RES
1 *1357:X *244:8 14.7464 
2 *244:8 *244:10 12.875 
3 *244:10 *1331:CLK 21.6571 
4 *244:10 *1330:CLK 16.8 
5 *244:8 *244:36 7.41071 
6 *244:36 *244:46 14.6429 
7 *244:46 *244:50 14.3393 
8 *244:50 *1332:CLK 18.7821 
9 *244:50 *1329:CLK 14.7643 
10 *244:46 *1327:CLK 9.3 
11 *244:36 *1346:CLK 17.8714 
*END

*D_NET *245 0.00886434
*CONN
*I *1333:CLK I *D sky130_fd_sc_hd__dfrtp_1
*I *1343:CLK I *D sky130_fd_sc_hd__dfrtp_1
*I *1339:CLK I *D sky130_fd_sc_hd__dfrtp_1
*I *1338:CLK I *D sky130_fd_sc_hd__dfrtp_1
*I *1345:CLK I *D sky130_fd_sc_hd__dfrtp_1
*I *1337:CLK I *D sky130_fd_sc_hd__dfrtp_1
*I *1344:CLK I *D sky130_fd_sc_hd__dfrtp_1
*I *1358:X O *D sky130_fd_sc_hd__clkbuf_16
*CAP
1 *1333:CLK 0.000166631
2 *1343:CLK 0.000777367
3 *1339:CLK 0
4 *1338:CLK 0
5 *1345:CLK 6.2705e-05
6 *1337:CLK 8.97022e-05
7 *1344:CLK 3.44531e-05
8 *1358:X 0.000717008
9 *245:69 0.00129923
10 *245:52 0.000714573
11 *245:36 6.2705e-05
12 *245:34 0.000704037
13 *245:14 0.00028243
14 *245:8 0.00121998
15 *245:8 *1269:B1 0.000227539
16 *245:8 *1404:A 2.89016e-05
17 *245:14 *1344:RESET_B 0
18 *245:34 *1249:A0 2.36643e-05
19 *1111:A *1333:CLK 0.000170301
20 *1111:A *245:69 0.00043772
21 *1113:A *1333:CLK 0.000225988
22 *1249:A1 *245:14 3.27461e-05
23 *1249:A1 *245:34 0.000271904
24 *1250:A *1337:CLK 5.49489e-05
25 *1250:A *245:14 5.60103e-05
26 *1254:A1 *1333:CLK 0.000162844
27 *1254:A1 *245:52 0
28 *1254:A1 *245:69 0.000401684
29 *1255:A *245:52 4.70271e-05
30 *1337:D *1337:CLK 3.08664e-05
31 *1339:D *245:69 2.84026e-05
32 *1343:D *1343:CLK 1.51638e-05
33 *30:12 *245:52 5.69498e-05
34 *30:20 *245:34 6.71688e-05
35 *30:20 *245:52 0.000148757
36 *97:14 *1333:CLK 0.000166616
37 *97:30 *1333:CLK 6.05161e-06
38 *116:29 *1343:CLK 7.22686e-05
*RES
1 *1358:X *245:8 18.0679 
2 *245:8 *245:14 12.1607 
3 *245:14 *1344:CLK 9.83571 
4 *245:14 *1337:CLK 11.0679 
5 *245:8 *245:34 9.85714 
6 *245:34 *245:36 4.5 
7 *245:36 *1345:CLK 10.2464 
8 *245:36 *1338:CLK 9.3 
9 *245:34 *245:52 11.9107 
10 *245:52 *1339:CLK 9.3 
11 *245:52 *245:69 13.7679 
12 *245:69 *1343:CLK 24.0857 
13 *245:69 *1333:CLK 19.4786 
*END

*D_NET *246 0.00978121
*CONN
*I *1347:CLK I *D sky130_fd_sc_hd__dfrtp_1
*I *1321:CLK I *D sky130_fd_sc_hd__dfrtp_1
*I *1319:CLK I *D sky130_fd_sc_hd__dfrtp_1
*I *1318:CLK I *D sky130_fd_sc_hd__dfrtp_1
*I *1320:CLK I *D sky130_fd_sc_hd__dfrtp_1
*I *1323:CLK I *D sky130_fd_sc_hd__dfrtp_1
*I *1359:X O *D sky130_fd_sc_hd__clkbuf_16
*CAP
1 *1347:CLK 0.000629744
2 *1321:CLK 1.41053e-05
3 *1319:CLK 0
4 *1318:CLK 0.000358421
5 *1320:CLK 0
6 *1323:CLK 2.88924e-05
7 *1359:X 0.000117413
8 *246:58 0.000704471
9 *246:45 0.000819245
10 *246:26 0.000998856
11 *246:20 0.00127942
12 *246:6 0.00151571
13 *1318:CLK *1134:A0 0.000226279
14 *1318:CLK *1213:A0 0.000228508
15 *1318:CLK *1215:A0 9.84673e-05
16 *1318:CLK *372:10 4.58402e-05
17 *1323:CLK *1209:A0 6.05161e-06
18 *1323:CLK *1221:A1 2.89114e-05
19 *1347:CLK *256:451 0.000106785
20 *246:20 *367:23 1.87331e-05
21 *246:26 *1102:B 0
22 *246:26 *1221:A1 0
23 *246:45 *1136:A0 9.67754e-05
24 *246:45 *1215:A1 0.000101733
25 *246:45 *1392:A 2.79092e-05
26 *246:58 *1319:RESET_B 0.000390987
27 *246:58 *372:10 1.29901e-05
28 *1108:A1 *1347:CLK 9.90367e-05
29 *1108:B1 *1347:CLK 1.02504e-05
30 *1108:D1 *1347:CLK 0.000317594
31 *1218:A *1321:CLK 1.17091e-05
32 *1218:A *246:20 1.32293e-05
33 *1218:A *246:26 0.00015692
34 *1318:D *1318:CLK 3.08664e-05
35 *1319:D *1318:CLK 3.67279e-06
36 *1320:D *246:58 0.000172377
37 *1321:D *246:20 5.6255e-05
38 *1321:D *246:26 3.11088e-05
39 *1387:A *246:26 0
40 *1387:A *246:45 0
41 *1390:A *1318:CLK 0.000140985
42 *1433:A *1347:CLK 7.49267e-05
43 *98:14 *1347:CLK 0.000109707
44 *99:43 *246:20 0.000103144
45 *102:30 *1347:CLK 3.7246e-05
46 *102:38 *1347:CLK 8.86261e-05
47 *124:6 *1347:CLK 0.0001474
48 *126:48 *1347:CLK 8.66228e-05
49 *126:199 *246:26 0.000148514
50 *126:203 *246:26 0
51 *126:216 *246:45 0
52 *126:223 *1318:CLK 2.24804e-05
53 *126:233 *1318:CLK 6.22854e-05
*RES
1 *1359:X *246:6 10.6571 
2 *246:6 *246:20 20.8571 
3 *246:20 *246:26 14.2679 
4 *246:26 *1323:CLK 14.3357 
5 *246:26 *246:45 13.8214 
6 *246:45 *1320:CLK 9.3 
7 *246:45 *246:58 9.32143 
8 *246:58 *1318:CLK 27.2643 
9 *246:58 *1319:CLK 9.3 
10 *246:20 *1321:CLK 9.72857 
11 *246:6 *1347:CLK 32.7464 
*END

*D_NET *247 0.00667267
*CONN
*I *1334:CLK I *D sky130_fd_sc_hd__dfrtp_1
*I *1336:CLK I *D sky130_fd_sc_hd__dfrtp_1
*I *1335:CLK I *D sky130_fd_sc_hd__dfrtp_1
*I *1341:CLK I *D sky130_fd_sc_hd__dfrtp_1
*I *1342:CLK I *D sky130_fd_sc_hd__dfrtp_1
*I *1340:CLK I *D sky130_fd_sc_hd__dfrtp_4
*I *1348:CLK I *D sky130_fd_sc_hd__dfrtp_1
*I *1360:X O *D sky130_fd_sc_hd__clkbuf_16
*CAP
1 *1334:CLK 0
2 *1336:CLK 0.000228168
3 *1335:CLK 0
4 *1341:CLK 0
5 *1342:CLK 0.000490247
6 *1340:CLK 2.65071e-05
7 *1348:CLK 0.000265092
8 *1360:X 0.000532054
9 *247:68 0.000590206
10 *247:64 0.000637335
11 *247:36 0.000537749
12 *247:32 0.000624781
13 *247:21 0.000449213
14 *247:8 0.00091787
15 *1342:CLK *256:315 0.000186662
16 *1342:CLK *256:327 0
17 *1348:CLK *256:339 0
18 *247:32 *256:327 2.93215e-05
19 *247:32 *256:335 0
20 *247:64 *256:327 7.67076e-05
21 *247:68 *1086:A 0.000149235
22 *1244:A *247:64 7.57312e-05
23 *1244:A *247:68 4.02873e-05
24 *1246:A *247:68 4.0284e-05
25 *1258:A2 *247:8 1.07719e-05
26 *1258:B1 *247:8 5.62995e-05
27 *1266:A1 *1342:CLK 0
28 *1268:A2 *1342:CLK 0
29 *1336:D *1336:CLK 0.000105679
30 *1336:D *247:68 5.17826e-05
31 *1340:D *1340:CLK 2.84109e-05
32 *1341:D *1342:CLK 3.08664e-05
33 *1341:D *247:36 7.09928e-05
34 *1342:D *1342:CLK 3.48705e-05
35 *1348:D *1348:CLK 1.93007e-05
36 *30:58 *247:68 2.22228e-05
37 *30:71 *247:68 5.38627e-05
38 *99:8 *1342:CLK 5.20751e-05
39 *99:8 *247:36 9.93955e-05
40 *102:14 *247:64 6.05161e-06
41 *102:14 *247:68 0
42 *126:64 *1348:CLK 3.04311e-05
43 *127:60 *1348:CLK 0
44 *127:60 *247:21 0
45 *139:27 *247:8 0.000102207
*RES
1 *1360:X *247:8 22.1393 
2 *247:8 *1348:CLK 18.425 
3 *247:8 *247:21 1.94643 
4 *247:21 *1340:CLK 14.3357 
5 *247:21 *247:32 5.28571 
6 *247:32 *247:36 6.26786 
7 *247:36 *1342:CLK 26.6393 
8 *247:36 *1341:CLK 9.3 
9 *247:32 *247:64 10.1607 
10 *247:64 *247:68 12.2143 
11 *247:68 *1335:CLK 13.8 
12 *247:68 *1336:CLK 18.4786 
13 *247:64 *1334:CLK 9.3 
*END

*D_NET *248 0.000241772
*CONN
*I *1076:A I *D sky130_fd_sc_hd__buf_4
*I *1408:X O *D sky130_fd_sc_hd__clkbuf_1
*CAP
1 *1076:A 0.00010102
2 *1408:X 0.00010102
3 *1291:D *1076:A 3.9733e-05
*RES
1 *1408:X *1076:A 29.6714 
*END

*D_NET *249 0.00540763
*CONN
*I *1176:A2 I *D sky130_fd_sc_hd__a21o_1
*I *1170:A2 I *D sky130_fd_sc_hd__a22o_1
*I *1171:A2 I *D sky130_fd_sc_hd__o221a_2
*I *1409:X O *D sky130_fd_sc_hd__buf_1
*CAP
1 *1176:A2 0.000427008
2 *1170:A2 9.15856e-05
3 *1171:A2 0.000146217
4 *1409:X 0.0010916
5 *249:16 0.000375438
6 *249:14 0.00165624
7 *1170:A2 *1166:A 5.33005e-05
8 *1170:A2 *1174:A1 0.000107831
9 *1171:A2 *1174:A1 0.000181317
10 *1176:A2 *1166:A 9.15842e-06
11 *1176:A2 *1176:B1 2.58222e-05
12 *1176:A2 *1361:A 0.000114861
13 *249:14 *1302:RESET_B 0.000139786
14 *249:16 *1166:A 0.000269222
15 *249:16 *1174:A1 6.88475e-05
16 *1170:A1 *1170:A2 0.000179857
17 *1171:A1 *1170:A2 9.41642e-05
18 *1171:A1 *1171:A2 0.000100478
19 *1171:B1 *249:16 8.9224e-06
20 *1190:A *249:14 5.66971e-05
21 *1302:D *249:14 5.50052e-05
22 *1306:D *249:14 2.11336e-05
23 *1316:CLK *1176:A2 2.36364e-05
24 *1316:D *1176:A2 0.000103735
25 *93:147 *1176:A2 5.7661e-06
*RES
1 *1409:X *249:14 29.4786 
2 *249:14 *249:16 3.76786 
3 *249:16 *1171:A2 17.0143 
4 *249:16 *1170:A2 16.9429 
5 *249:14 *1176:A2 20.8893 
*END

*D_NET *250 0.000974675
*CONN
*I *1186:B1 I *D sky130_fd_sc_hd__o211a_1
*I *1189:A1 I *D sky130_fd_sc_hd__mux2_1
*I *1410:X O *D sky130_fd_sc_hd__clkbuf_1
*CAP
1 *1186:B1 4.52612e-05
2 *1189:A1 5.77931e-05
3 *1410:X 0.000294355
4 *250:8 0.000397409
5 *1186:C1 *1186:B1 2.15824e-05
6 *1186:C1 *250:8 1.92789e-05
7 *1187:B2 *1186:B1 3.57366e-05
8 *1189:S *1189:A1 0.00010326
*RES
1 *1410:X *250:8 13.9607 
2 *250:8 *1189:A1 19.6393 
3 *250:8 *1186:B1 10.2643 
*END

*D_NET *251 0.00303552
*CONN
*I *1187:B1 I *D sky130_fd_sc_hd__a22o_1
*I *1186:A1 I *D sky130_fd_sc_hd__o211a_1
*I *1191:A1 I *D sky130_fd_sc_hd__mux2_1
*I *1411:X O *D sky130_fd_sc_hd__buf_1
*CAP
1 *1187:B1 0.000314117
2 *1186:A1 0.00013561
3 *1191:A1 0
4 *1411:X 0.00021121
5 *251:15 0.000519349
6 *251:8 0.000280831
7 *1187:B1 *1187:A2 5.4544e-05
8 *251:8 *1184:A 0.000230475
9 *251:8 *1191:A0 5.52302e-05
10 *251:15 *1191:A0 0.000188586
11 *1186:C1 *1186:A1 5.33334e-05
12 *1187:B2 *1186:A1 5.62995e-05
13 *1188:A1 *1187:B1 0.000138724
14 *1188:B1 *1187:B1 6.26774e-06
15 *1188:B2 *1187:B1 0.000314799
16 *1188:C1 *1187:B1 0
17 *1189:S *1186:A1 0
18 *1192:A *251:8 5.71472e-05
19 *93:147 *1186:A1 0.000173097
20 *93:164 *1186:A1 7.29667e-05
21 *179:8 *1187:B1 3.50166e-05
22 *180:12 *1186:A1 5.26091e-05
23 *180:12 *251:8 2.65105e-05
24 *180:12 *251:15 1.82549e-05
25 *184:12 *1187:B1 1.32535e-05
26 *184:12 *251:15 2.72859e-05
*RES
1 *1411:X *251:8 13.9607 
2 *251:8 *1191:A1 9.3 
3 *251:8 *251:15 2.17857 
4 *251:15 *1186:A1 22.4071 
5 *251:15 *1187:B1 16.6214 
*END

*D_NET *252 0.00366819
*CONN
*I *1193:A2 I *D sky130_fd_sc_hd__a21o_1
*I *1187:A2 I *D sky130_fd_sc_hd__a22o_1
*I *1188:A2 I *D sky130_fd_sc_hd__o221a_2
*I *1412:X O *D sky130_fd_sc_hd__buf_1
*CAP
1 *1193:A2 7.78426e-05
2 *1187:A2 0.000279419
3 *1188:A2 8.2072e-05
4 *1412:X 0.00082017
5 *252:12 0.000684602
6 *252:10 0.00122112
7 *252:12 *1398:A 0
8 *1187:B1 *1187:A2 5.4544e-05
9 *1187:B2 *1188:A2 0
10 *1188:A1 *1187:A2 0.000282659
11 *1188:B1 *1188:A2 1.76039e-05
12 *1308:D *252:12 0
13 *1312:CLK *252:12 0
14 *93:164 *1188:A2 0
15 *93:164 *1193:A2 7.62323e-05
16 *93:164 *252:12 0
17 *93:168 *252:10 2.09722e-05
18 *179:8 *1187:A2 5.09539e-05
19 *242:75 *252:12 0
*RES
1 *1412:X *252:10 23.8893 
2 *252:10 *252:12 5.13393 
3 *252:12 *1188:A2 14.9161 
4 *252:12 *1187:A2 18.3714 
5 *252:10 *1193:A2 15.5857 
*END

*D_NET *253 0.00427008
*CONN
*I *1200:A1 I *D sky130_fd_sc_hd__mux2_1
*I *1129:B1 I *D sky130_fd_sc_hd__o211a_1
*I *1413:X O *D sky130_fd_sc_hd__clkbuf_1
*CAP
1 *1200:A1 0.000335866
2 *1129:B1 0.000169944
3 *1413:X 0.001078
4 *253:12 0.00158381
5 *253:12 *352:6 2.93776e-05
6 *1129:A2 *1129:B1 0.000218931
7 *1129:A2 *1200:A1 0.000268262
8 *1129:C1 *253:12 3.61729e-05
9 *1131:B1 *253:12 3.54498e-05
10 *1201:A *253:12 1.91807e-05
11 *1202:S *253:12 0.00013926
12 *1312:CLK *253:12 5.33614e-05
13 *1313:CLK *253:12 0.000141036
14 *1313:D *253:12 8.59435e-05
15 *145:39 *1200:A1 7.54868e-05
*RES
1 *1413:X *253:12 32.4786 
2 *253:12 *1129:B1 12.1036 
3 *253:12 *1200:A1 23.3536 
*END

*D_NET *254 0.00389439
*CONN
*I *1202:A1 I *D sky130_fd_sc_hd__mux2_1
*I *1130:B1 I *D sky130_fd_sc_hd__a22o_1
*I *1129:A1 I *D sky130_fd_sc_hd__o211a_1
*I *1414:X O *D sky130_fd_sc_hd__buf_1
*CAP
1 *1202:A1 0
2 *1130:B1 0.000374897
3 *1129:A1 0.000233594
4 *1414:X 0.000663751
5 *254:12 0.000667157
6 *254:10 0.000722417
7 *1129:A1 *353:8 0
8 *1130:B1 *1130:A2 0.000344842
9 *1130:B1 *1202:A0 6.87673e-05
10 *1130:B1 *1397:A 5.7661e-06
11 *1130:B1 *255:23 6.5231e-05
12 *254:10 *1126:A 2.44318e-05
13 *254:12 *1126:A 0
14 *254:12 *1131:A2 0
15 *1130:A1 *1130:B1 1.8289e-05
16 *1202:S *1129:A1 1.59782e-05
17 *1202:S *1130:B1 5.52238e-05
18 *1202:S *254:12 4.1331e-06
19 *1203:A *254:10 0
20 *1204:A2 *1129:A1 7.00781e-05
21 *1204:A2 *1130:B1 9.71197e-05
22 *1415:A *254:10 5.71472e-05
23 *93:168 *1129:A1 8.74621e-05
24 *140:14 *254:10 0.000318101
25 *140:14 *254:12 0
*RES
1 *1414:X *254:10 25.2107 
2 *254:10 *254:12 1.03571 
3 *254:12 *1129:A1 18.4786 
4 *254:12 *1130:B1 22.8893 
5 *254:10 *1202:A1 13.8 
*END

*D_NET *255 0.0036328
*CONN
*I *1130:A2 I *D sky130_fd_sc_hd__a22o_1
*I *1131:A2 I *D sky130_fd_sc_hd__o221a_2
*I *1204:A1 I *D sky130_fd_sc_hd__a21o_1
*I *1415:X O *D sky130_fd_sc_hd__buf_1
*CAP
1 *1130:A2 8.56252e-05
2 *1131:A2 0.000234601
3 *1204:A1 0
4 *1415:X 0.000157215
5 *255:23 0.000778913
6 *255:12 0.000615902
7 *255:12 *1204:B1 0.00010096
8 *255:23 *1202:A0 0.000229456
9 *255:23 *1204:B1 0.000131439
10 *255:23 *1394:A 2.89016e-05
11 *1130:A1 *1130:A2 5.27308e-05
12 *1130:B1 *1130:A2 0.000344842
13 *1130:B1 *255:23 6.5231e-05
14 *1131:A1 *1131:A2 3.18377e-05
15 *1131:B1 *1131:A2 4.27842e-06
16 *1202:S *1131:A2 8.28376e-05
17 *1203:A *255:23 0.000186662
18 *1204:A2 *255:23 0.000228628
19 *1313:D *255:12 0
20 *1414:A *255:12 0
21 *140:14 *1130:A2 0.000272744
22 *254:12 *1131:A2 0
*RES
1 *1415:X *255:12 20.6929 
2 *255:12 *1204:A1 9.3 
3 *255:12 *255:23 9.71429 
4 *255:23 *1131:A2 22.7821 
5 *255:23 *1130:A2 13.1393 
*END

*D_NET *256 0.0849197
*CONN
*I *1313:RESET_B I *D sky130_fd_sc_hd__dfrtp_1
*I *1314:RESET_B I *D sky130_fd_sc_hd__dfrtp_1
*I *1307:RESET_B I *D sky130_fd_sc_hd__dfrtp_1
*I *1351:RESET_B I *D sky130_fd_sc_hd__dfrtp_4
*I *1304:RESET_B I *D sky130_fd_sc_hd__dfrtp_1
*I *1350:RESET_B I *D sky130_fd_sc_hd__dfrtp_4
*I *1330:RESET_B I *D sky130_fd_sc_hd__dfrtp_1
*I *1331:RESET_B I *D sky130_fd_sc_hd__dfrtp_1
*I *1298:RESET_B I *D sky130_fd_sc_hd__dfrtp_1
*I *1297:RESET_B I *D sky130_fd_sc_hd__dfrtp_1
*I *1349:RESET_B I *D sky130_fd_sc_hd__dfrtp_4
*I *1287:RESET_B I *D sky130_fd_sc_hd__dfrtp_1
*I *1327:RESET_B I *D sky130_fd_sc_hd__dfrtp_1
*I *1328:RESET_B I *D sky130_fd_sc_hd__dfrtp_1
*I *1305:RESET_B I *D sky130_fd_sc_hd__dfrtp_1
*I *1332:RESET_B I *D sky130_fd_sc_hd__dfrtp_1
*I *1329:RESET_B I *D sky130_fd_sc_hd__dfrtp_1
*I *1299:RESET_B I *D sky130_fd_sc_hd__dfrtp_1
*I *1306:RESET_B I *D sky130_fd_sc_hd__dfrtp_1
*I *1308:RESET_B I *D sky130_fd_sc_hd__dfrtp_1
*I *1312:RESET_B I *D sky130_fd_sc_hd__dfrtp_1
*I *1290:RESET_B I *D sky130_fd_sc_hd__dfrtp_1
*I *1288:RESET_B I *D sky130_fd_sc_hd__dfrtp_1
*I *1317:RESET_B I *D sky130_fd_sc_hd__dfrtp_1
*I *1315:RESET_B I *D sky130_fd_sc_hd__dfrtp_1
*I *1311:RESET_B I *D sky130_fd_sc_hd__dfrtp_1
*I *1347:RESET_B I *D sky130_fd_sc_hd__dfrtp_1
*I *1346:RESET_B I *D sky130_fd_sc_hd__dfrtp_1
*I *1345:RESET_B I *D sky130_fd_sc_hd__dfrtp_1
*I *1344:RESET_B I *D sky130_fd_sc_hd__dfrtp_1
*I *1343:RESET_B I *D sky130_fd_sc_hd__dfrtp_1
*I *1289:RESET_B I *D sky130_fd_sc_hd__dfrtp_1
*I *1318:RESET_B I *D sky130_fd_sc_hd__dfrtp_1
*I *1342:RESET_B I *D sky130_fd_sc_hd__dfrtp_1
*I *1341:RESET_B I *D sky130_fd_sc_hd__dfrtp_1
*I *1336:RESET_B I *D sky130_fd_sc_hd__dfrtp_1
*I *1335:RESET_B I *D sky130_fd_sc_hd__dfrtp_1
*I *1334:RESET_B I *D sky130_fd_sc_hd__dfrtp_1
*I *1340:RESET_B I *D sky130_fd_sc_hd__dfrtp_4
*I *1333:RESET_B I *D sky130_fd_sc_hd__dfrtp_1
*I *1339:RESET_B I *D sky130_fd_sc_hd__dfrtp_1
*I *1338:RESET_B I *D sky130_fd_sc_hd__dfrtp_1
*I *1337:RESET_B I *D sky130_fd_sc_hd__dfrtp_1
*I *1348:RESET_B I *D sky130_fd_sc_hd__dfrtp_1
*I *1319:RESET_B I *D sky130_fd_sc_hd__dfrtp_1
*I *1320:RESET_B I *D sky130_fd_sc_hd__dfrtp_1
*I *1323:RESET_B I *D sky130_fd_sc_hd__dfrtp_1
*I *1322:RESET_B I *D sky130_fd_sc_hd__dfrtp_1
*I *1321:RESET_B I *D sky130_fd_sc_hd__dfrtp_1
*I *1326:RESET_B I *D sky130_fd_sc_hd__dfrtp_1
*I *1325:RESET_B I *D sky130_fd_sc_hd__dfrtp_1
*I *1310:RESET_B I *D sky130_fd_sc_hd__dfrtp_1
*I *1324:RESET_B I *D sky130_fd_sc_hd__dfrtp_1
*I *1303:RESET_B I *D sky130_fd_sc_hd__dfrtp_1
*I *1309:RESET_B I *D sky130_fd_sc_hd__dfrtp_1
*I *1316:RESET_B I *D sky130_fd_sc_hd__dfrtp_1
*I *1302:RESET_B I *D sky130_fd_sc_hd__dfrtp_1
*I *1300:RESET_B I *D sky130_fd_sc_hd__dfrtp_1
*I *1301:RESET_B I *D sky130_fd_sc_hd__dfrtp_1
*I *1295:RESET_B I *D sky130_fd_sc_hd__dfrtp_1
*I *1296:RESET_B I *D sky130_fd_sc_hd__dfrtp_1
*I *1294:RESET_B I *D sky130_fd_sc_hd__dfrtp_1
*I *1293:RESET_B I *D sky130_fd_sc_hd__dfrtp_1
*I *1292:RESET_B I *D sky130_fd_sc_hd__dfrtp_1
*I *1291:RESET_B I *D sky130_fd_sc_hd__dfrtp_1
*I *1416:X O *D sky130_fd_sc_hd__buf_12
*CAP
1 *1313:RESET_B 0.000139509
2 *1314:RESET_B 5.69866e-05
3 *1307:RESET_B 1.53842e-05
4 *1351:RESET_B 0.000276018
5 *1304:RESET_B 0.000228284
6 *1350:RESET_B 0
7 *1330:RESET_B 0.000592089
8 *1331:RESET_B 0
9 *1298:RESET_B 3.137e-05
10 *1297:RESET_B 2.82235e-05
11 *1349:RESET_B 0.000286637
12 *1287:RESET_B 0.000231232
13 *1327:RESET_B 0.000667331
14 *1328:RESET_B 4.09311e-05
15 *1305:RESET_B 3.60762e-05
16 *1332:RESET_B 0.000265763
17 *1329:RESET_B 0.000646678
18 *1299:RESET_B 0.000148034
19 *1306:RESET_B 0.000338639
20 *1308:RESET_B 0.00071158
21 *1312:RESET_B 0.000577152
22 *1290:RESET_B 1.09987e-05
23 *1288:RESET_B 0.00045059
24 *1317:RESET_B 0.000115684
25 *1315:RESET_B 0
26 *1311:RESET_B 5.08188e-05
27 *1347:RESET_B 0.000130667
28 *1346:RESET_B 6.24199e-05
29 *1345:RESET_B 0
30 *1344:RESET_B 0.000301641
31 *1343:RESET_B 1.67759e-05
32 *1289:RESET_B 0.000303884
33 *1318:RESET_B 0
34 *1342:RESET_B 1.37188e-05
35 *1341:RESET_B 8.08523e-06
36 *1336:RESET_B 0.000263052
37 *1335:RESET_B 6.25893e-05
38 *1334:RESET_B 6.18139e-05
39 *1340:RESET_B 0
40 *1333:RESET_B 0
41 *1339:RESET_B 0
42 *1338:RESET_B 0
43 *1337:RESET_B 0.000286086
44 *1348:RESET_B 7.22266e-05
45 *1319:RESET_B 0.00122625
46 *1320:RESET_B 0
47 *1323:RESET_B 0
48 *1322:RESET_B 0.000220465
49 *1321:RESET_B 0
50 *1326:RESET_B 2.11316e-05
51 *1325:RESET_B 7.32151e-06
52 *1310:RESET_B 0.00121646
53 *1324:RESET_B 0.000428761
54 *1303:RESET_B 8.09744e-05
55 *1309:RESET_B 0.000275633
56 *1316:RESET_B 0.000692065
57 *1302:RESET_B 0.000644934
58 *1300:RESET_B 8.53353e-05
59 *1301:RESET_B 5.7992e-05
60 *1295:RESET_B 9.43432e-05
61 *1296:RESET_B 3.27638e-05
62 *1294:RESET_B 0.000461391
63 *1293:RESET_B 5.31212e-05
64 *1292:RESET_B 0.000256133
65 *1291:RESET_B 0
66 *1416:X 0.000160418
67 *256:821 0.000563669
68 *256:811 0.000756406
69 *256:755 0.00128173
70 *256:737 0.00133362
71 *256:722 0.00101391
72 *256:707 0.000902472
73 *256:705 0.000457298
74 *256:673 0.000955696
75 *256:659 0.000385951
76 *256:639 0.000702417
77 *256:627 0.00130164
78 *256:621 0.00165236
79 *256:607 0.0014248
80 *256:551 0.000661382
81 *256:537 0.000748422
82 *256:525 0.000567556
83 *256:480 0.000991905
84 *256:465 0.00125372
85 *256:459 0.000882311
86 *256:451 0.00139501
87 *256:404 0.00063192
88 *256:394 0.000712638
89 *256:357 0.00055437
90 *256:355 0.000569314
91 *256:353 0.000700083
92 *256:339 0.000716497
93 *256:335 0.00045599
94 *256:331 0.000789819
95 *256:327 0.000798431
96 *256:315 0.00186384
97 *256:301 0.00157495
98 *256:287 0.00130201
99 *256:280 0.000322365
100 *256:273 0.000456146
101 *256:263 0.000647223
102 *256:256 0.000497387
103 *256:246 0.000538245
104 *256:236 0.000289863
105 *256:234 0.00222999
106 *256:184 0.000612469
107 *256:170 0.000493354
108 *256:168 0.000600924
109 *256:158 0.000743859
110 *256:152 0.00031022
111 *256:150 0.000905116
112 *256:126 0.000804192
113 *256:112 0.00118251
114 *256:100 0.000665289
115 *256:86 0.000466656
116 *256:76 0.000807103
117 *256:60 0.000572515
118 *256:58 0.000867154
119 *256:54 0.000701749
120 *256:37 0.000642932
121 *256:23 0.00117392
122 *256:8 0.000692056
123 *1288:RESET_B *1134:A0 3.2674e-05
124 *1289:RESET_B *1389:A 7.92251e-05
125 *1290:RESET_B *1136:A0 4.83849e-05
126 *1294:RESET_B *1372:A 0
127 *1295:RESET_B *334:6 6.05161e-06
128 *1297:RESET_B *324:10 1.18064e-05
129 *1298:RESET_B *1371:A 1.31213e-05
130 *1300:RESET_B *339:8 2.51343e-06
131 *1301:RESET_B *1168:A 9.51514e-06
132 *1302:RESET_B *341:8 3.18257e-05
133 *1303:RESET_B *325:61 4.97961e-05
134 *1303:RESET_B *325:76 3.24964e-05
135 *1307:RESET_B *1184:A 4.90118e-05
136 *1308:RESET_B *1183:A 4.81555e-05
137 *1308:RESET_B *1383:A 3.17148e-05
138 *1308:RESET_B *347:6 5.33005e-05
139 *1309:RESET_B *1377:A 2.89016e-05
140 *1309:RESET_B *325:76 2.09897e-05
141 *1311:RESET_B *1227:A1 1.24368e-05
142 *1312:RESET_B *1128:A 6.48098e-05
143 *1312:RESET_B *1200:A0 0.000228876
144 *1312:RESET_B *1400:A 0.000262883
145 *1313:RESET_B *353:8 3.09892e-05
146 *1317:RESET_B *1209:A0 1.05947e-05
147 *1319:RESET_B *371:10 1.52071e-05
148 *1319:RESET_B *372:10 7.4057e-06
149 *1322:RESET_B *1219:A0 0.000136182
150 *1324:RESET_B *1194:A0 5.50052e-05
151 *1325:RESET_B *364:23 2.81497e-05
152 *1326:RESET_B *1378:A 4.85567e-05
153 *1327:RESET_B *1177:A0 0.000191784
154 *1327:RESET_B *1365:A 1.00887e-05
155 *1327:RESET_B *361:12 0.000238859
156 *1328:RESET_B *1231:A0 2.81497e-05
157 *1329:RESET_B *1181:A0 0.000402919
158 *1329:RESET_B *1382:A 9.90431e-05
159 *1330:RESET_B *1097:A 0.000122652
160 *1330:RESET_B *1235:A0 0.000144268
161 *1330:RESET_B *1237:A0 0.000121749
162 *1330:RESET_B *1363:A 0
163 *1330:RESET_B *358:6 2.85321e-05
164 *1332:RESET_B *1239:A0 0.000135326
165 *1336:RESET_B *1245:A0 0.000167684
166 *1337:RESET_B *1252:A0 0
167 *1337:RESET_B *1393:A 0
168 *1344:RESET_B *1269:B1 0
169 *1346:RESET_B *1273:B1 4.17433e-05
170 *1346:RESET_B *376:10 0.000136772
171 *256:23 *1140:A 0
172 *256:54 *333:8 9.91812e-05
173 *256:60 *1403:A 7.7591e-05
174 *256:76 *1150:A 5.50052e-05
175 *256:76 *1403:A 0.000143967
176 *256:76 *334:6 4.22609e-05
177 *256:86 *1157:A0 3.6236e-05
178 *256:86 *1168:A 0.00013059
179 *256:86 *314:10 0.000148869
180 *256:100 *1168:A 0.00010326
181 *256:112 *1167:A 1.19402e-05
182 *256:112 *1168:A 0
183 *256:112 *339:8 1.07719e-05
184 *256:126 *341:8 0.000136772
185 *256:150 *1132:A1 0.000139734
186 *256:150 *1205:A0 3.92878e-05
187 *256:150 *1205:A1 0.00013185
188 *256:150 *1362:A 6.33946e-05
189 *256:152 *1207:A0 0.000160771
190 *256:158 *325:88 0.00026876
191 *256:168 *324:95 0.000318604
192 *256:168 *325:76 0.000114045
193 *256:168 *325:88 0
194 *256:170 *325:76 0.000254819
195 *256:184 *1194:A0 7.79937e-05
196 *256:184 *325:76 5.28506e-05
197 *256:234 *1391:A 5.68713e-05
198 *256:234 *364:23 0.000155879
199 *256:246 *1106:B 0.000174308
200 *256:246 *1225:A1 0
201 *256:256 *1378:A 4.07505e-05
202 *256:273 *369:12 0
203 *256:280 *1215:A1 4.06796e-05
204 *256:301 *371:10 9.54771e-05
205 *256:315 *370:25 0
206 *256:353 *355:10 0.000139774
207 *256:355 *355:10 5.05917e-05
208 *256:355 *355:18 1.23107e-05
209 *256:357 *1252:A0 0
210 *256:404 *1243:A0 0
211 *256:404 *1245:A0 0.000104974
212 *256:451 *364:23 0.000167099
213 *256:459 *1247:A 2.00201e-05
214 *256:459 *1425:A 0
215 *256:459 *355:48 1.21375e-05
216 *256:465 *355:18 0.000965602
217 *256:480 *355:18 0.000134682
218 *256:525 *1132:A1 0.000171878
219 *256:525 *1207:A0 2.23393e-05
220 *256:525 *277:10 0.000137824
221 *256:537 *1132:A1 5.16489e-05
222 *256:537 *1136:A1 0
223 *256:607 *1149:A 2.44318e-05
224 *256:607 *1159:A2 0.000187042
225 *256:621 *1078:A 8.24912e-05
226 *256:621 *291:12 0
227 *256:627 *1110:A 7.78044e-05
228 *256:673 *1231:A0 2.92137e-05
229 *256:705 *291:12 0.000379832
230 *256:707 *291:12 0.000126278
231 *256:722 *1160:A1 1.92789e-05
232 *256:722 *298:18 0.000195396
233 *256:722 *324:10 2.58997e-05
234 *256:737 *1371:A 2.41365e-05
235 *256:755 *1363:A 0
236 *256:755 *1371:A 0.000173083
237 *256:811 *1184:A 8.27532e-05
238 *256:821 *1191:A0 0.000175526
239 o_index[2] *256:357 0.000117421
240 *1092:A1 *256:459 0
241 *1108:A1 *256:451 1.82657e-05
242 *1108:C1 *256:451 5.20359e-06
243 *1124:D1 *256:459 2.05695e-05
244 *1125:A2 *256:480 0
245 *1133:A *256:537 8.21987e-05
246 *1137:A *1312:RESET_B 5.12583e-05
247 *1137:A *256:537 3.67279e-06
248 *1137:A *256:551 2.73164e-05
249 *1143:B1 *256:37 0.000144732
250 *1144:S *256:23 9.6087e-05
251 *1147:A *256:23 2.72055e-05
252 *1147:A *256:37 3.20387e-05
253 *1154:B2 *256:60 4.88537e-05
254 *1155:S *1294:RESET_B 0
255 *1159:A1 *1296:RESET_B 4.24224e-05
256 *1175:A *256:86 0
257 *1178:A *1303:RESET_B 0.000248048
258 *1181:S *256:639 0
259 *1181:S *256:659 0
260 *1181:S *256:673 0
261 *1197:A *256:234 0
262 *1206:A *256:150 7.36469e-05
263 *1207:S *1308:RESET_B 9.30093e-05
264 *1207:S *256:126 0.000249848
265 *1208:A *1306:RESET_B 2.26669e-05
266 *1210:A *1308:RESET_B 0
267 *1219:S *256:150 3.49506e-05
268 *1226:A *256:234 4.47364e-05
269 *1235:S *1330:RESET_B 0.000173716
270 *1242:A *256:353 0.000132198
271 *1242:A *256:355 5.47763e-05
272 *1243:A1 *256:394 0
273 *1243:A1 *256:404 0
274 *1248:A2 *256:465 0.000130738
275 *1249:A1 *1344:RESET_B 0
276 *1249:A1 *256:480 0
277 *1268:A2 *256:315 1.41706e-05
278 *1268:B1 *256:315 0
279 *1270:A *1344:RESET_B 4.46186e-06
280 *1270:A *256:480 0.000113877
281 *1276:A1 *256:459 0.000117867
282 *1276:A1 *256:465 1.94879e-05
283 *1277:B *256:459 7.92423e-05
284 *1286:B *1351:RESET_B 3.39771e-05
285 *1286:B *256:621 0
286 *1287:CLK *256:621 5.1296e-05
287 *1288:CLK *1288:RESET_B 0.000267738
288 *1288:D *1288:RESET_B 1.47872e-05
289 *1291:D *256:23 0
290 *1292:CLK *256:8 0
291 *1292:CLK *256:23 0.000126416
292 *1292:D *1292:RESET_B 9.84729e-05
293 *1295:CLK *1295:RESET_B 8.92486e-05
294 *1295:CLK *256:86 1.46689e-05
295 *1296:CLK *1304:RESET_B 1.36635e-05
296 *1296:CLK *256:607 6.39452e-06
297 *1297:D *1297:RESET_B 2.21972e-05
298 *1297:D *256:722 5.78834e-05
299 *1298:CLK *256:737 9.34765e-05
300 *1298:D *256:737 5.49544e-05
301 *1300:CLK *1300:RESET_B 4.73514e-05
302 *1301:CLK *1301:RESET_B 0
303 *1301:CLK *256:86 3.34366e-05
304 *1301:CLK *256:100 9.30093e-05
305 *1301:D *256:86 0
306 *1302:D *1306:RESET_B 4.79864e-05
307 *1303:D *1303:RESET_B 0.000126278
308 *1304:D *256:621 7.83587e-05
309 *1306:CLK *1306:RESET_B 0.000167995
310 *1323:D *256:280 3.92854e-05
311 *1324:CLK *1324:RESET_B 8.73271e-05
312 *1324:D *1324:RESET_B 0.000182761
313 *1325:CLK *256:234 0.000196183
314 *1325:D *256:234 6.56176e-05
315 *1328:D *1327:RESET_B 6.84805e-05
316 *1328:D *1328:RESET_B 3.44093e-05
317 *1328:D *256:673 1.00332e-05
318 *1329:CLK *1329:RESET_B 2.89114e-05
319 *1329:D *1332:RESET_B 0
320 *1330:CLK *1330:RESET_B 0.000315762
321 *1331:CLK *1330:RESET_B 3.87671e-05
322 *1332:CLK *1332:RESET_B 0
323 *1336:D *1336:RESET_B 7.50159e-05
324 *1336:D *256:404 4.47937e-05
325 *1342:CLK *256:315 0.000186662
326 *1342:CLK *256:327 0
327 *1342:D *256:315 2.89114e-05
328 *1344:D *1344:RESET_B 0
329 *1347:CLK *256:451 0.000106785
330 *1347:D *1347:RESET_B 4.08637e-05
331 *1347:D *256:451 9.83388e-05
332 *1347:D *256:459 3.04082e-05
333 *1348:CLK *256:339 0
334 *1348:D *1348:RESET_B 1.789e-05
335 *1349:D *1349:RESET_B 0
336 *1349:D *256:707 0
337 *1351:D *1351:RESET_B 0.000132234
338 *1354:A *256:621 0.000250915
339 *1385:A *1289:RESET_B 5.79792e-05
340 *1385:A *256:280 4.79864e-05
341 *1385:A *256:287 5.07426e-05
342 *1433:A *256:451 0.000139202
343 *30:10 *256:353 0
344 *30:10 *256:355 0
345 *30:12 *256:355 0
346 *30:58 *256:335 0.00018692
347 *30:58 *256:339 0.000111414
348 *30:58 *256:394 0.000102281
349 *30:58 *256:404 3.52562e-05
350 *30:71 *256:404 6.35798e-05
351 *93:6 *256:23 5.03772e-05
352 *93:10 *256:23 2.95641e-05
353 *93:53 *256:23 2.90958e-05
354 *93:66 *1294:RESET_B 0
355 *93:114 *1296:RESET_B 5.33005e-05
356 *93:120 *256:76 0.000100248
357 *93:120 *256:86 0
358 *93:120 *256:112 0.000250208
359 *93:139 *1306:RESET_B 0.000146991
360 *93:139 *256:112 0.000350131
361 *93:164 *256:821 0.000249145
362 *94:25 *256:621 4.45377e-05
363 *97:14 *256:339 0.000196458
364 *99:8 *1341:RESET_B 1.31213e-05
365 *99:8 *256:327 1.28239e-05
366 *99:8 *256:331 1.93293e-05
367 *99:8 *256:394 2.00758e-05
368 *99:43 *256:256 0
369 *102:14 *256:315 0
370 *102:14 *256:327 4.72217e-05
371 *124:6 *256:451 1.05936e-05
372 *124:14 *256:459 9.97164e-05
373 *124:34 *1347:RESET_B 1.20582e-05
374 *126:10 *256:627 3.73361e-05
375 *126:10 *256:639 0
376 *126:115 *1332:RESET_B 0
377 *126:117 *1332:RESET_B 0
378 *126:169 *256:170 0
379 *126:169 *256:184 0
380 *126:180 *256:168 0
381 *126:180 *256:170 0
382 *126:203 *256:263 0.000243222
383 *126:203 *256:273 0.000166276
384 *126:216 *256:273 0.000229443
385 *126:216 *256:280 0.000327014
386 *126:233 *256:315 0.000126439
387 *127:10 *256:480 0.000227852
388 *127:34 *256:480 0.000193004
389 *127:47 *256:480 0.000150393
390 *134:12 *1344:RESET_B 0
391 *149:10 *256:37 2.29112e-05
392 *158:12 *256:76 5.50052e-05
393 *162:44 *1296:RESET_B 0.000132605
394 *162:55 *1327:RESET_B 0
395 *169:12 *256:112 1.72894e-05
396 *184:34 *1308:RESET_B 0.000176226
397 *213:14 *256:459 4.04359e-05
398 *213:14 *256:465 5.56517e-05
399 *216:18 *1337:RESET_B 0.00017309
400 *216:18 *256:355 9.18193e-05
401 *216:18 *256:357 0.000650854
402 *239:50 *256:246 5.58875e-06
403 *239:87 *256:621 0.000101545
404 *239:122 *256:246 2.09138e-05
405 *240:12 *1294:RESET_B 0.000367396
406 *240:14 *1293:RESET_B 9.35501e-05
407 *240:34 *1293:RESET_B 4.17702e-05
408 *240:51 *1351:RESET_B 0
409 *240:51 *256:58 0.000345632
410 *240:51 *256:60 6.67983e-05
411 *240:51 *256:607 1.64583e-05
412 *240:64 *256:607 7.41875e-05
413 *240:90 *256:621 7.47231e-06
414 *240:92 *256:621 7.47864e-06
415 *240:94 *256:707 0
416 *241:18 *1349:RESET_B 0
417 *241:18 *256:707 0
418 *242:60 *1306:RESET_B 7.60816e-05
419 *242:79 *256:811 7.03295e-05
420 *242:81 *1307:RESET_B 2.29097e-05
421 *242:81 *256:811 0.000210732
422 *243:43 *256:126 0
423 *243:49 *256:150 9.28237e-05
424 *243:86 *1308:RESET_B 0
425 *243:86 *256:126 0
426 *243:97 *1308:RESET_B 0
427 *243:112 *1290:RESET_B 4.83849e-05
428 *244:46 *1327:RESET_B 0.000254461
429 *244:50 *1327:RESET_B 0
430 *244:50 *256:673 0
431 *245:14 *1344:RESET_B 0
432 *246:58 *1319:RESET_B 0.000390987
433 *247:32 *256:327 2.93215e-05
434 *247:32 *256:335 0
435 *247:64 *256:327 7.67076e-05
436 *249:14 *1302:RESET_B 0.000139786
*RES
1 *1416:X *256:8 16.6571 
2 *256:8 *1291:RESET_B 4.5 
3 *256:8 *256:23 17.8214 
4 *256:23 *1292:RESET_B 7.99107 
5 *256:23 *256:37 6.5 
6 *256:37 *1293:RESET_B 5.79464 
7 *256:37 *1294:RESET_B 9.48214 
8 *1294:RESET_B *256:54 4.58036 
9 *256:54 *256:58 8.875 
10 *256:58 *256:60 3.46429 
11 *256:60 *1296:RESET_B 5.79464 
12 *256:60 *256:76 11.1071 
13 *256:76 *1295:RESET_B 1.70536 
14 *256:76 *256:86 12.8214 
15 *256:86 *1301:RESET_B 5.40179 
16 *256:86 *256:100 5.83929 
17 *256:100 *1300:RESET_B 1.29464 
18 *256:100 *256:112 15.625 
19 *256:112 *1302:RESET_B 10.2232 
20 *1302:RESET_B *256:126 11.9018 
21 *256:126 *1316:RESET_B 6.11607 
22 *1316:RESET_B *256:150 15.3036 
23 *256:150 *256:152 2.40179 
24 *256:152 *256:158 9.30357 
25 *256:158 *256:168 14.8571 
26 *256:168 *256:170 3.3125 
27 *256:170 *1309:RESET_B 8.53571 
28 *256:170 *256:184 2.33036 
29 *256:184 *1303:RESET_B 7.96429 
30 *256:184 *1324:RESET_B 11.8304 
31 *256:168 *1310:RESET_B 4.5 
32 *1310:RESET_B *256:234 18.7232 
33 *256:234 *256:236 0.428571 
34 *256:236 *1325:RESET_B 0.473214 
35 *256:236 *256:246 9.48214 
36 *256:246 *1326:RESET_B 4.97321 
37 *256:246 *256:256 4.98214 
38 *256:256 *1321:RESET_B 4.5 
39 *256:256 *256:263 4.98214 
40 *256:263 *1322:RESET_B 8.25893 
41 *256:263 *256:273 4.98214 
42 *256:273 *1323:RESET_B 4.5 
43 *256:273 *256:280 6.5 
44 *256:280 *1320:RESET_B 4.5 
45 *256:280 *256:287 1.33929 
46 *256:287 *1319:RESET_B 16.6875 
47 *1319:RESET_B *256:301 9.79464 
48 *256:301 *256:315 32.875 
49 *256:315 *256:327 17.6429 
50 *256:327 *256:331 3.01786 
51 *256:331 *256:335 9.17857 
52 *256:335 *256:339 9.78571 
53 *256:339 *1348:RESET_B 1.72321 
54 *256:339 *256:353 12.1786 
55 *256:353 *256:355 6.5 
56 *256:355 *256:357 8.32143 
57 *256:357 *1337:RESET_B 10.1429 
58 *256:357 *1338:RESET_B 4.5 
59 *256:355 *1339:RESET_B 4.5 
60 *256:353 *1333:RESET_B 4.5 
61 *256:335 *1340:RESET_B 4.5 
62 *256:331 *256:394 10.4464 
63 *256:394 *1334:RESET_B 5.38393 
64 *256:394 *256:404 6.5 
65 *256:404 *1335:RESET_B 5.38393 
66 *256:404 *1336:RESET_B 10.3661 
67 *256:327 *1341:RESET_B 0.473214 
68 *256:315 *1342:RESET_B 0.473214 
69 *256:301 *1318:RESET_B 4.5 
70 *256:287 *1289:RESET_B 10.0982 
71 *256:234 *256:451 12.4464 
72 *256:451 *256:459 10.4464 
73 *256:459 *256:465 5.39132 
74 *256:465 *1343:RESET_B 8.18679 
75 *256:465 *256:480 16.3964 
76 *256:480 *1344:RESET_B 9.78571 
77 *256:480 *1345:RESET_B 4.5 
78 *256:459 *1346:RESET_B 6.20536 
79 *256:451 *1347:RESET_B 1.84821 
80 *256:158 *1311:RESET_B 1.3125 
81 *256:152 *1315:RESET_B 4.5 
82 *256:150 *256:525 6.04464 
83 *256:525 *1317:RESET_B 6.11607 
84 *256:525 *256:537 4.98214 
85 *256:537 *1288:RESET_B 10.4554 
86 *256:537 *256:551 1.33929 
87 *256:551 *1290:RESET_B 4.97321 
88 *256:551 *1312:RESET_B 16.0268 
89 *256:126 *1308:RESET_B 11.5804 
90 *256:112 *1306:RESET_B 11.5804 
91 *256:58 *256:607 10.9107 
92 *256:607 *256:621 22.9286 
93 *256:621 *256:627 15.7321 
94 *256:627 *1299:RESET_B 6.72321 
95 *256:627 *256:639 3.76786 
96 *256:639 *1329:RESET_B 12.3661 
97 *1329:RESET_B *1332:RESET_B 14.1696 
98 *256:639 *256:659 1.64286 
99 *256:659 *1305:RESET_B 4.97321 
100 *256:659 *256:673 4.42857 
101 *256:673 *1328:RESET_B 5.40179 
102 *256:673 *1327:RESET_B 19.6518 
103 *256:621 *1287:RESET_B 0.473214 
104 *1287:RESET_B *256:705 9.48214 
105 *256:705 *256:707 4.67857 
106 *256:707 *1349:RESET_B 9.78571 
107 *256:707 *256:722 16.3661 
108 *256:722 *1297:RESET_B 5.08036 
109 *256:722 *256:737 12.8304 
110 *256:737 *1298:RESET_B 0.901786 
111 *256:737 *256:755 15.0357 
112 *256:755 *1331:RESET_B 4.5 
113 *256:755 *1330:RESET_B 18.7768 
114 *256:705 *1350:RESET_B 4.5 
115 *256:607 *1304:RESET_B 3.08036 
116 *256:54 *1351:RESET_B 14.0089 
117 *1308:RESET_B *256:811 7.04464 
118 *256:811 *1307:RESET_B 0.473214 
119 *256:811 *256:821 12.5179 
120 *256:821 *1314:RESET_B 5.38393 
121 *256:821 *1313:RESET_B 7.10714 
*END

*D_NET *257 0.00130624
*CONN
*I *1426:A I *D sky130_fd_sc_hd__clkbuf_4
*I *1368:A I *D sky130_fd_sc_hd__dlygate4sd3_1
*I *1333:Q O *D sky130_fd_sc_hd__dfrtp_1
*CAP
1 *1426:A 0.000192764
2 *1368:A 9.15606e-05
3 *1333:Q 0.000229002
4 *257:10 0.000513327
5 *1426:A *1081:A 8.15939e-05
6 *1426:A *355:10 0
7 *257:10 *1241:A0 2.79092e-05
8 *257:10 *355:10 0
9 o_bucket[0] *1426:A 0.000116545
10 o_bucket[0] *257:10 5.35423e-05
*RES
1 *1333:Q *257:10 17.5143 
2 *257:10 *1368:A 15.1571 
3 *257:10 *1426:A 18.7821 
*END

*D_NET *258 0.000837687
*CONN
*I *1366:A I *D sky130_fd_sc_hd__dlygate4sd3_1
*I *1427:A I *D sky130_fd_sc_hd__buf_2
*I *1334:Q O *D sky130_fd_sc_hd__dfrtp_1
*CAP
1 *1366:A 0.000226449
2 *1427:A 0.000180895
3 *1334:Q 0
4 *258:6 0.000407344
5 *1366:A *1243:A0 0
6 o_bucket[1] *1427:A 2.29985e-05
7 *1243:A1 *1366:A 0
8 *1243:A1 *1427:A 0
*RES
1 *1334:Q *258:6 13.8 
2 *258:6 *1427:A 17.2643 
3 *258:6 *1366:A 17.8714 
*END

*D_NET *259 0.00167311
*CONN
*I *1141:B1 I *D sky130_fd_sc_hd__o211a_1
*I *1144:A1 I *D sky130_fd_sc_hd__mux2_1
*I *1417:X O *D sky130_fd_sc_hd__clkbuf_1
*CAP
1 *1141:B1 0
2 *1144:A1 0.000195842
3 *1417:X 0.000265013
4 *259:10 0.000460855
5 *1144:A1 *1140:A 8.94417e-05
6 *259:10 *1141:A2 1.02301e-05
7 *259:10 *270:14 8.95645e-05
8 *1141:A1 *259:10 7.80548e-06
9 *1142:B1 *259:10 0.000151266
10 *1147:A *1144:A1 4.26814e-05
11 *93:53 *1144:A1 0.000360413
*RES
1 *1417:X *259:10 14.8 
2 *259:10 *1144:A1 22.9786 
3 *259:10 *1141:B1 9.3 
*END

*D_NET *260 0.000949083
*CONN
*I *1428:A I *D sky130_fd_sc_hd__clkbuf_4
*I *1370:A I *D sky130_fd_sc_hd__dlygate4sd3_1
*I *1335:Q O *D sky130_fd_sc_hd__dfrtp_1
*CAP
1 *1428:A 0.000284252
2 *1370:A 0
3 *1335:Q 0.000106939
4 *260:8 0.000391191
5 *1428:A *1432:A 0.00014925
6 o_bucket[2] *1428:A 1.74503e-05
*RES
1 *1335:Q *260:8 15.7464 
2 *260:8 *1370:A 13.8 
3 *260:8 *1428:A 19.3179 
*END

*D_NET *261 0.00257789
*CONN
*I *1393:A I *D sky130_fd_sc_hd__dlygate4sd3_1
*I *1429:A I *D sky130_fd_sc_hd__clkbuf_4
*I *1337:Q O *D sky130_fd_sc_hd__dfrtp_1
*CAP
1 *1393:A 0.000260275
2 *1429:A 0.000998318
3 *1337:Q 0
4 *261:6 0.00125859
5 *1393:A *1430:A 0
6 o_index[1] *1429:A 6.07024e-05
7 *1337:RESET_B *1393:A 0
*RES
1 *1337:Q *261:6 13.8 
2 *261:6 *1429:A 32.7464 
3 *261:6 *1393:A 18.3179 
*END

*D_NET *262 0.00158179
*CONN
*I *1381:A I *D sky130_fd_sc_hd__dlygate4sd3_1
*I *1430:A I *D sky130_fd_sc_hd__buf_2
*I *1338:Q O *D sky130_fd_sc_hd__dfrtp_1
*CAP
1 *1381:A 0.00017259
2 *1430:A 0.000618303
3 *1338:Q 0
4 *262:6 0.000790893
5 *1381:A *1252:A0 0
6 *1430:A *1252:A0 0
7 *1393:A *1430:A 0
*RES
1 *1338:Q *262:6 13.8 
2 *262:6 *1430:A 25.1571 
3 *262:6 *1381:A 16.9607 
*END

*D_NET *263 0.00156679
*CONN
*I *1431:A I *D sky130_fd_sc_hd__clkbuf_4
*I *1367:A I *D sky130_fd_sc_hd__dlygate4sd3_1
*I *1339:Q O *D sky130_fd_sc_hd__dfrtp_1
*CAP
1 *1431:A 0.000475623
2 *1367:A 9.08451e-05
3 *1339:Q 0.000216926
4 *263:8 0.000783394
*RES
1 *1339:Q *263:8 12.7107 
2 *263:8 *1367:A 11.0679 
3 *263:8 *1431:A 17.0143 
*END

*D_NET *264 0.00117693
*CONN
*I *1432:A I *D sky130_fd_sc_hd__clkbuf_4
*I *1336:Q O *D sky130_fd_sc_hd__dfrtp_1
*CAP
1 *1432:A 0.000474372
2 *1336:Q 0.000474372
3 o_bucket[2] *1432:A 7.89362e-05
4 *1428:A *1432:A 0.00014925
*RES
1 *1336:Q *1432:A 36.7607 
*END

*D_NET *265 0.00176421
*CONN
*I *1118:A2 I *D sky130_fd_sc_hd__a31o_1
*I *1425:X O *D sky130_fd_sc_hd__clkbuf_1
*CAP
1 *1118:A2 0.000397849
2 *1425:X 0.000397849
3 *1089:B1 *1118:A2 0.000136744
4 *1118:B1 *1118:A2 0.000495967
5 *1124:D1 *1118:A2 1.90936e-05
6 *1251:A1 *1118:A2 0
7 *1276:A3 *1118:A2 1.60094e-05
8 *116:16 *1118:A2 4.77002e-05
9 *116:29 *1118:A2 5.66971e-05
10 *126:64 *1118:A2 0.000139907
11 *137:37 *1118:A2 5.63975e-05
*RES
1 *1425:X *1118:A2 36.8143 
*END

*D_NET *266 0.00179786
*CONN
*I *1247:A I *D sky130_fd_sc_hd__nand2_1
*I *1425:A I *D sky130_fd_sc_hd__clkbuf_1
*I *1433:X O *D sky130_fd_sc_hd__clkbuf_1
*CAP
1 *1247:A 0.000254814
2 *1425:A 0.000326778
3 *1433:X 0
4 *266:6 0.000581592
5 *1247:A *1123:B1 0
6 *1124:D1 *1247:A 1.24368e-05
7 *1247:B *1247:A 3.0013e-05
8 *1433:A *1425:A 0.000146474
9 *98:14 *1425:A 0
10 *98:18 *1247:A 0
11 *124:14 *1247:A 4.6361e-05
12 *126:48 *1425:A 0.000269378
13 *126:64 *1425:A 6.08611e-05
14 *213:14 *1247:A 4.91306e-05
15 *256:459 *1247:A 2.00201e-05
16 *256:459 *1425:A 0
*RES
1 *1433:X *266:6 13.8 
2 *266:6 *1425:A 20.4786 
3 *266:6 *1247:A 18.1446 
*END

*D_NET *267 0.000638076
*CONN
*I *1176:B1 I *D sky130_fd_sc_hd__a21o_1
*I *1361:X O *D sky130_fd_sc_hd__dlygate4sd3_1
*CAP
1 *1176:B1 0.000140046
2 *1361:X 0.000140046
3 *1176:A2 *1176:B1 2.58222e-05
4 *1208:A *1176:B1 1.59373e-05
5 *1302:D *1176:B1 5.32071e-05
6 *1316:D *1176:B1 5.49544e-05
7 *93:139 *1176:B1 0.000101777
8 *93:147 *1176:B1 1.04232e-05
9 *242:60 *1176:B1 9.58632e-05
*RES
1 *1361:X *1176:B1 31.3321 
*END

*D_NET *268 0.00103096
*CONN
*I *1148:B1 I *D sky130_fd_sc_hd__a21o_1
*I *1372:X O *D sky130_fd_sc_hd__dlygate4sd3_1
*CAP
1 *1148:B1 0.000346781
2 *1372:X 0.000346781
3 *1148:B1 *281:14 3.48705e-05
4 *1148:A1 *1148:B1 0.000203483
5 *1155:S *1148:B1 9.90431e-05
*RES
1 *1372:X *1148:B1 24.7964 
*END

*D_NET *269 0.000427359
*CONN
*I *1193:B1 I *D sky130_fd_sc_hd__a21o_1
*I *1383:X O *D sky130_fd_sc_hd__dlygate4sd3_1
*CAP
1 *1193:B1 0.000197496
2 *1383:X 0.000197496
3 *1308:D *1193:B1 3.23672e-05
*RES
1 *1383:X *1193:B1 22.0107 
*END

*D_NET *270 0.00296719
*CONN
*I *1142:B2 I *D sky130_fd_sc_hd__a22o_1
*I *1141:A2 I *D sky130_fd_sc_hd__o211a_1
*I *1146:A1 I *D sky130_fd_sc_hd__mux2_1
*I *1418:X O *D sky130_fd_sc_hd__buf_1
*CAP
1 *1142:B2 6.06523e-05
2 *1141:A2 1.42416e-05
3 *1146:A1 0.000313575
4 *1418:X 0.000245185
5 *270:14 0.000573677
6 *270:6 0.000551697
7 *1142:B2 *1143:A2 2.89549e-05
8 *1146:A1 *1139:A 0.000251143
9 *1146:A1 *1146:A0 5.65955e-05
10 *1141:A1 *1141:A2 1.02301e-05
11 *1141:C1 *270:14 1.6815e-05
12 *1142:B1 *1146:A1 1.853e-05
13 *1142:B1 *270:14 9.45304e-05
14 *1147:A *1146:A1 0.000441021
15 *93:53 *270:14 2.02692e-05
16 *150:6 *1146:A1 0.00016041
17 *154:27 *1146:A1 9.86486e-06
18 *259:10 *1141:A2 1.02301e-05
19 *259:10 *270:14 8.95645e-05
*RES
1 *1418:X *270:6 12.3 
2 *270:6 *270:14 13.4286 
3 *270:14 *1146:A1 17.9429 
4 *270:14 *1141:A2 9.72857 
5 *270:6 *1142:B2 10.8714 
*END

*D_NET *271 0.000477312
*CONN
*I *1204:B1 I *D sky130_fd_sc_hd__a21o_1
*I *1394:X O *D sky130_fd_sc_hd__dlygate4sd3_1
*CAP
1 *1204:B1 7.19767e-05
2 *1394:X 7.19767e-05
3 *1204:A2 *1204:B1 0.00010096
4 *255:12 *1204:B1 0.00010096
5 *255:23 *1204:B1 0.000131439
*RES
1 *1394:X *1204:B1 21.2071 
*END

*D_NET *272 0.000282477
*CONN
*I *1159:B1 I *D sky130_fd_sc_hd__a21o_1
*I *1403:X O *D sky130_fd_sc_hd__dlygate4sd3_1
*CAP
1 *1159:B1 0.000117927
2 *1403:X 0.000117927
3 *1159:B1 *1159:A2 3.1826e-05
4 *1159:A1 *1159:B1 1.47972e-05
*RES
1 *1403:X *1159:B1 20.7964 
*END

*D_NET *273 0.000728079
*CONN
*I *1269:B1 I *D sky130_fd_sc_hd__o21ai_1
*I *1404:X O *D sky130_fd_sc_hd__dlygate4sd3_1
*CAP
1 *1269:B1 0.000186521
2 *1404:X 0.000186521
3 *1121:A2 *1269:B1 0
4 *1270:A *1269:B1 0
5 *1344:D *1269:B1 5.01213e-05
6 *1344:RESET_B *1269:B1 0
7 *134:12 *1269:B1 7.73758e-05
8 *245:8 *1269:B1 0.000227539
*RES
1 *1404:X *1269:B1 32.0286 
*END

*D_NET *274 8.11351e-05
*CONN
*I *1271:B1 I *D sky130_fd_sc_hd__o21ai_1
*I *1405:X O *D sky130_fd_sc_hd__dlygate4sd3_1
*CAP
1 *1271:B1 2.16079e-05
2 *1405:X 2.16079e-05
3 *1271:B1 *1405:A 6.05161e-06
4 *1272:B *1271:B1 3.18676e-05
*RES
1 *1405:X *1271:B1 19.1357 
*END

*D_NET *275 0.00308631
*CONN
*I *1239:A1 I *D sky130_fd_sc_hd__mux2_1
*I *1164:A0 I *D sky130_fd_sc_hd__mux2_1
*I *1406:X O *D sky130_fd_sc_hd__dlygate4sd3_1
*CAP
1 *1239:A1 0
2 *1164:A0 0.000725651
3 *1406:X 0.00029864
4 *275:14 0.00102429
5 *1164:A0 *1162:A1 4.48647e-05
6 *1164:A0 *1164:A1 5.65955e-05
7 *275:14 *1406:A 0.000614886
8 *1164:S *1164:A0 9.99853e-05
9 *1239:S *275:14 0.000185403
10 *244:10 *275:14 3.59945e-05
*RES
1 *1406:X *275:14 26.2464 
2 *275:14 *1164:A0 31.3714 
3 *275:14 *1239:A1 9.3 
*END

*D_NET *276 0.000193595
*CONN
*I *1240:A I *D sky130_fd_sc_hd__clkbuf_1
*I *1407:X O *D sky130_fd_sc_hd__dlygate4sd3_1
*CAP
1 *1240:A 6.84998e-05
2 *1407:X 6.84998e-05
3 *1332:D *1240:A 5.65955e-05
*RES
1 *1407:X *1240:A 19.9571 
*END

*D_NET *277 0.00236388
*CONN
*I *1219:A1 I *D sky130_fd_sc_hd__mux2_1
*I *1207:A0 I *D sky130_fd_sc_hd__mux2_1
*I *1362:X O *D sky130_fd_sc_hd__dlygate4sd3_1
*CAP
1 *1219:A1 0
2 *1207:A0 0.000595897
3 *1362:X 0.000143488
4 *277:10 0.000739385
5 *1207:A0 *1207:A1 0.000407807
6 *1207:S *1207:A0 5.49995e-05
7 *1219:S *1207:A0 3.87671e-05
8 *1315:CLK *1207:A0 6.26036e-05
9 *243:62 *277:10 0
10 *256:152 *1207:A0 0.000160771
11 *256:525 *1207:A0 2.23393e-05
12 *256:525 *277:10 0.000137824
*RES
1 *1362:X *277:10 16.2821 
2 *277:10 *1207:A0 27.4071 
3 *277:10 *1219:A1 13.8 
*END

*D_NET *278 0.00236128
*CONN
*I *1237:A1 I *D sky130_fd_sc_hd__mux2_1
*I *1162:A0 I *D sky130_fd_sc_hd__mux2_1
*I *1363:X O *D sky130_fd_sc_hd__dlygate4sd3_1
*CAP
1 *1237:A1 0.00040594
2 *1162:A0 0.000412433
3 *1363:X 0
4 *278:4 0.000818373
5 *1162:A0 *1238:A 3.22353e-05
6 *1163:A *1162:A0 0.000143375
7 *1237:S *1237:A1 5.46383e-06
8 *1298:D *1162:A0 9.35794e-06
9 *1331:D *1162:A0 5.66971e-05
10 *1331:D *1237:A1 0.000443612
11 *1364:A *1237:A1 3.37927e-05
*RES
1 *1363:X *278:4 9.3 
2 *278:4 *1162:A0 16.2286 
3 *278:4 *1237:A1 15.4964 
*END

*D_NET *279 0.000808296
*CONN
*I *1238:A I *D sky130_fd_sc_hd__clkbuf_1
*I *1364:X O *D sky130_fd_sc_hd__dlygate4sd3_1
*CAP
1 *1238:A 0.000272756
2 *1364:X 0.000272756
3 *1162:A0 *1238:A 3.22353e-05
4 *1331:D *1238:A 0.000195474
5 *1364:A *1238:A 3.50746e-05
*RES
1 *1364:X *1238:A 33.6 
*END

*D_NET *280 0.00237763
*CONN
*I *1229:A1 I *D sky130_fd_sc_hd__mux2_1
*I *1177:A0 I *D sky130_fd_sc_hd__mux2_1
*I *1365:X O *D sky130_fd_sc_hd__dlygate4sd3_1
*CAP
1 *1229:A1 0.000260069
2 *1177:A0 0.00053128
3 *1365:X 0
4 *280:4 0.000791349
5 *1177:A0 *324:74 2.85234e-05
6 *1230:A *1229:A1 1.12578e-05
7 *1327:RESET_B *1177:A0 0.000191784
8 *126:25 *1229:A1 0.000322472
9 *162:44 *1177:A0 1.85914e-05
10 *162:55 *1177:A0 7.22574e-05
11 *244:50 *1229:A1 0.000150043
*RES
1 *1365:X *280:4 9.3 
2 *280:4 *1177:A0 18.4607 
3 *280:4 *1229:A1 24.2821 
*END

*D_NET *281 0.00255517
*CONN
*I *1142:A2 I *D sky130_fd_sc_hd__a22o_1
*I *1143:A2 I *D sky130_fd_sc_hd__o221a_2
*I *1148:A2 I *D sky130_fd_sc_hd__a21o_1
*I *1419:X O *D sky130_fd_sc_hd__buf_1
*CAP
1 *1142:A2 0
2 *1143:A2 0.000295681
3 *1148:A2 0
4 *1419:X 0.000263351
5 *281:27 0.000542981
6 *281:14 0.000510651
7 *1142:A1 *1143:A2 7.40845e-06
8 *1142:B1 *281:27 5.54817e-06
9 *1142:B2 *1143:A2 2.89549e-05
10 *1143:B2 *1143:A2 0.000107195
11 *1143:C1 *1143:A2 5.10339e-05
12 *1148:A1 *281:14 3.88512e-05
13 *1148:A1 *281:27 9.90367e-05
14 *1148:B1 *281:14 3.48705e-05
15 *1156:A *281:14 5.71472e-05
16 *1156:A *281:27 2.44318e-05
17 *1293:D *281:27 0
18 *1294:CLK *281:14 0.000103267
19 *1294:CLK *281:27 0
20 *1419:A *281:14 0
21 *93:66 *281:27 0.000384765
*RES
1 *1419:X *281:14 23.4786 
2 *281:14 *1148:A2 9.3 
3 *281:14 *281:27 14.9286 
4 *281:27 *1143:A2 14.0679 
5 *281:27 *1142:A2 9.3 
*END

*D_NET *282 0.00041864
*CONN
*I *1243:A0 I *D sky130_fd_sc_hd__mux2_1
*I *1366:X O *D sky130_fd_sc_hd__dlygate4sd3_1
*CAP
1 *1243:A0 0.000184163
2 *1366:X 0.000184163
3 *1243:S *1243:A0 5.03141e-05
4 *1366:A *1243:A0 0
5 *256:404 *1243:A0 0
*RES
1 *1366:X *1243:A0 30.6179 
*END

*D_NET *283 0.000514615
*CONN
*I *1254:A0 I *D sky130_fd_sc_hd__mux2_1
*I *1367:X O *D sky130_fd_sc_hd__dlygate4sd3_1
*CAP
1 *1254:A0 0.000217034
2 *1367:X 0.000217034
3 *1254:A1 *1254:A0 5.66971e-05
4 *1254:S *1254:A0 2.38501e-05
*RES
1 *1367:X *1254:A0 22.0107 
*END

*D_NET *284 0.000732324
*CONN
*I *1241:A0 I *D sky130_fd_sc_hd__mux2_1
*I *1368:X O *D sky130_fd_sc_hd__dlygate4sd3_1
*CAP
1 *1241:A0 0.000199424
2 *1368:X 0.000199424
3 *1241:A0 *355:10 0.000272293
4 o_bucket[0] *1241:A0 0
5 *1241:S *1241:A0 3.32737e-05
6 *257:10 *1241:A0 2.79092e-05
*RES
1 *1368:X *1241:A0 32.0107 
*END

*D_NET *285 0.00283696
*CONN
*I *1285:A I *D sky130_fd_sc_hd__nor2_1
*I *1369:X O *D sky130_fd_sc_hd__dlygate4sd3_1
*CAP
1 *1285:A 0.000936082
2 *1369:X 0.000936082
3 *1285:A *1077:B 3.96115e-06
4 *1285:A *1077:C 8.07205e-05
5 *1285:A *324:31 0.000738382
6 *1077:A *1285:A 0.000141734
*RES
1 *1369:X *1285:A 40.4571 
*END

*D_NET *286 0.00112187
*CONN
*I *1245:A0 I *D sky130_fd_sc_hd__mux2_1
*I *1370:X O *D sky130_fd_sc_hd__dlygate4sd3_1
*CAP
1 *1245:A0 0.000352293
2 *1370:X 0.000352293
3 *1336:D *1245:A0 0.000144623
4 *1336:RESET_B *1245:A0 0.000167684
5 *256:404 *1245:A0 0.000104974
*RES
1 *1370:X *1245:A0 34.0643 
*END

*D_NET *287 0.00370349
*CONN
*I *1235:A1 I *D sky130_fd_sc_hd__mux2_1
*I *1160:A0 I *D sky130_fd_sc_hd__mux2_1
*I *1371:X O *D sky130_fd_sc_hd__dlygate4sd3_1
*CAP
1 *1235:A1 0.000224816
2 *1160:A0 0.00120552
3 *1371:X 7.24912e-05
4 *287:10 0.00150283
5 *1160:A0 *1160:A1 5.65955e-05
6 *1160:S *1160:A0 2.36643e-05
7 *1235:S *1160:A0 0.00019018
8 *1235:S *1235:A1 0.000330936
9 *1331:CLK *1160:A0 9.64484e-05
*RES
1 *1371:X *287:10 19.3357 
2 *287:10 *1160:A0 28.05 
3 *287:10 *1235:A1 13.9786 
*END

*D_NET *288 6.39194e-05
*CONN
*I *1236:A I *D sky130_fd_sc_hd__clkbuf_1
*I *1373:X O *D sky130_fd_sc_hd__dlygate4sd3_1
*CAP
1 *1236:A 3.19597e-05
2 *1373:X 3.19597e-05
*RES
1 *1373:X *1236:A 19.1357 
*END

*D_NET *289 0.00147559
*CONN
*I *1227:A1 I *D sky130_fd_sc_hd__mux2_1
*I *1198:A0 I *D sky130_fd_sc_hd__mux2_1
*I *1374:X O *D sky130_fd_sc_hd__dlygate4sd3_1
*CAP
1 *1227:A1 0.000386718
2 *1198:A0 0.000229238
3 *1374:X 0
4 *289:4 0.000615956
5 *1227:A1 *325:88 0.000100248
6 *1198:S *1198:A0 3.14048e-05
7 *1311:RESET_B *1227:A1 1.24368e-05
8 *126:184 *1227:A1 5.22622e-05
9 *126:199 *1227:A1 4.73286e-05
*RES
1 *1374:X *289:4 9.3 
2 *289:4 *1198:A0 11.8893 
3 *289:4 *1227:A1 24.4071 
*END

*D_NET *290 0.00145433
*CONN
*I *1231:A1 I *D sky130_fd_sc_hd__mux2_1
*I *1179:A0 I *D sky130_fd_sc_hd__mux2_1
*I *1375:X O *D sky130_fd_sc_hd__dlygate4sd3_1
*CAP
1 *1231:A1 0.000128615
2 *1179:A0 0.000402201
3 *1375:X 0
4 *290:4 0.000530816
5 *1179:A0 *1179:A1 0.000139907
6 *1179:A0 *1375:A 5.52302e-05
7 *1231:A1 *1231:A0 0
8 *1179:S *1179:A0 9.55372e-05
9 *1179:S *1231:A1 1.21258e-05
10 *1328:CLK *1231:A1 1.15281e-05
11 *162:55 *1231:A1 7.83659e-05
*RES
1 *1375:X *290:4 9.3 
2 *290:4 *1179:A0 14.3536 
3 *290:4 *1231:A1 20.2821 
*END

*D_NET *291 0.003839
*CONN
*I *1283:B1 I *D sky130_fd_sc_hd__a21oi_1
*I *1376:X O *D sky130_fd_sc_hd__dlygate4sd3_1
*CAP
1 *1283:B1 0
2 *1376:X 0.00141389
3 *291:12 0.00141389
4 *291:12 *1078:A 0
5 *291:12 *1283:A2 8.25843e-06
6 *291:12 *326:35 0.000372566
7 *1284:B *291:12 2.84026e-05
8 *1304:D *291:12 0
9 *1350:D *291:12 9.58689e-05
10 *241:10 *291:12 0
11 *256:621 *291:12 0
12 *256:705 *291:12 0.000379832
13 *256:707 *291:12 0.000126278
*RES
1 *1376:X *291:12 46.55 
2 *291:12 *1283:B1 9.3 
*END

*D_NET *292 0.00224738
*CONN
*I *1152:B1 I *D sky130_fd_sc_hd__o211a_1
*I *1155:A1 I *D sky130_fd_sc_hd__mux2_1
*I *1420:X O *D sky130_fd_sc_hd__clkbuf_1
*CAP
1 *1152:B1 7.16019e-05
2 *1155:A1 0.000146884
3 *1420:X 0.000390726
4 *292:8 0.000609211
5 *1152:B1 *1152:A2 1.02301e-05
6 *1152:B1 *303:27 7.25873e-06
7 *1155:A1 *1151:A 0.00039229
8 *1155:A1 *1155:A0 7.83587e-05
9 *1152:C1 *1152:B1 1.27226e-05
10 *1152:C1 *292:8 5.10039e-05
11 *1153:B1 *1152:B1 1.32693e-05
12 *1295:CLK *1155:A1 0.000191877
13 *240:12 *1155:A1 0.000271951
*RES
1 *1420:X *292:8 15.6036 
2 *292:8 *1155:A1 24.6214 
3 *292:8 *1152:B1 10.675 
*END

*D_NET *293 0.00253502
*CONN
*I *1223:A1 I *D sky130_fd_sc_hd__mux2_1
*I *1194:A0 I *D sky130_fd_sc_hd__mux2_1
*I *1377:X O *D sky130_fd_sc_hd__dlygate4sd3_1
*CAP
1 *1223:A1 0.000277414
2 *1194:A0 0.000552557
3 *1377:X 0
4 *293:4 0.000829971
5 *1194:A0 *1194:A1 0.000441001
6 *1223:A1 *1223:A0 5.65955e-05
7 *1223:S *1223:A1 6.93048e-05
8 *1224:A *1223:A1 0.000144773
9 *1324:CLK *1194:A0 3.04037e-05
10 *1324:D *1194:A0 0
11 *1324:RESET_B *1194:A0 5.50052e-05
12 *256:184 *1194:A0 7.79937e-05
*RES
1 *1377:X *293:4 9.3 
2 *293:4 *1194:A0 26.0321 
3 *293:4 *1223:A1 14.3714 
*END

*D_NET *294 0.000843313
*CONN
*I *1227:A0 I *D sky130_fd_sc_hd__mux2_1
*I *1378:X O *D sky130_fd_sc_hd__dlygate4sd3_1
*CAP
1 *1227:A0 0.000289538
2 *1378:X 0.000289538
3 *126:199 *1227:A0 0.000264236
*RES
1 *1378:X *1227:A0 24.0643 
*END

*D_NET *295 0.00413724
*CONN
*I *1233:A1 I *D sky130_fd_sc_hd__mux2_1
*I *1181:A0 I *D sky130_fd_sc_hd__mux2_1
*I *1379:X O *D sky130_fd_sc_hd__dlygate4sd3_1
*CAP
1 *1233:A1 0.000541739
2 *1181:A0 0.000799182
3 *1379:X 0
4 *295:4 0.00134092
5 *1181:A0 *1181:A1 5.52238e-05
6 *1181:A0 *1234:A 0.000272994
7 *1181:A0 *1382:A 0.000176481
8 *1233:A1 *1094:B_N 0.000269422
9 *1096:B *1233:A1 0
10 *1329:D *1181:A0 0.00014285
11 *1329:RESET_B *1181:A0 0.000402919
12 *1357:A *1233:A1 5.71472e-05
13 *244:10 *1233:A1 0
14 *244:50 *1181:A0 7.83659e-05
*RES
1 *1379:X *295:4 9.3 
2 *295:4 *1181:A0 31.5143 
3 *295:4 *1233:A1 27.1571 
*END

*D_NET *296 0.00140943
*CONN
*I *1234:A I *D sky130_fd_sc_hd__clkbuf_1
*I *1380:X O *D sky130_fd_sc_hd__dlygate4sd3_1
*CAP
1 *1234:A 0.000360291
2 *1380:X 0.000360291
3 *1234:A *1379:A 0.000141555
4 *1234:A *362:27 0.000274294
5 *1181:A0 *1234:A 0.000272994
6 *244:50 *1234:A 0
*RES
1 *1380:X *1234:A 34.725 
*END

*D_NET *297 0.000870366
*CONN
*I *1252:A0 I *D sky130_fd_sc_hd__mux2_1
*I *1381:X O *D sky130_fd_sc_hd__dlygate4sd3_1
*CAP
1 *1252:A0 0.000354554
2 *1381:X 0.000354554
3 *1252:A0 *1249:A0 0.000122091
4 o_index[2] *1252:A0 3.91668e-05
5 *1337:RESET_B *1252:A0 0
6 *1381:A *1252:A0 0
7 *1430:A *1252:A0 0
8 *256:357 *1252:A0 0
*RES
1 *1381:X *1252:A0 33.2429 
*END

*D_NET *298 0.0044304
*CONN
*I *1282:B I *D sky130_fd_sc_hd__xor2_1
*I *1382:X O *D sky130_fd_sc_hd__dlygate4sd3_1
*CAP
1 *1282:B 0
2 *1382:X 0.00141018
3 *298:18 0.00141018
4 *298:18 *1382:A 0.000127168
5 *298:18 *324:10 0
6 *298:18 *325:46 0.000382423
7 *298:18 *326:72 5.62934e-05
8 *1349:D *298:18 0.000183445
9 *93:23 *298:18 2.84026e-05
10 *241:10 *298:18 0.000339061
11 *241:18 *298:18 0.000297842
12 *256:722 *298:18 0.000195396
*RES
1 *1382:X *298:18 45.1393 
2 *298:18 *1282:B 9.3 
*END

*D_NET *299 0.00396312
*CONN
*I *1215:A1 I *D sky130_fd_sc_hd__mux2_1
*I *1136:A0 I *D sky130_fd_sc_hd__mux2_1
*I *1384:X O *D sky130_fd_sc_hd__dlygate4sd3_1
*CAP
1 *1215:A1 0.000393748
2 *1136:A0 0.00093572
3 *1384:X 0
4 *299:4 0.00132947
5 *1136:A0 *1134:A1 6.3629e-05
6 *1136:A0 *1136:A1 3.69047e-06
7 *1136:A0 *1384:A 3.05605e-05
8 *1215:A1 *1134:A0 0.000331025
9 *1137:A *1136:A0 7.58841e-05
10 *1290:D *1136:A0 9.15842e-06
11 *1290:RESET_B *1136:A0 4.83849e-05
12 *126:216 *1215:A1 0.000137639
13 *243:112 *1136:A0 0.000365023
14 *246:45 *1136:A0 9.67754e-05
15 *246:45 *1215:A1 0.000101733
16 *256:280 *1215:A1 4.06796e-05
*RES
1 *1384:X *299:4 9.3 
2 *299:4 *1136:A0 32.4607 
3 *299:4 *1215:A1 35.5321 
*END

*D_NET *300 0.00018654
*CONN
*I *1216:A I *D sky130_fd_sc_hd__clkbuf_1
*I *1385:X O *D sky130_fd_sc_hd__dlygate4sd3_1
*CAP
1 *1216:A 5.38653e-05
2 *1385:X 5.38653e-05
3 *1216:A *1389:A 7.88091e-05
*RES
1 *1385:X *1216:A 19.9571 
*END

*D_NET *301 0.00378287
*CONN
*I *1221:A1 I *D sky130_fd_sc_hd__mux2_1
*I *1209:A0 I *D sky130_fd_sc_hd__mux2_1
*I *1386:X O *D sky130_fd_sc_hd__dlygate4sd3_1
*CAP
1 *1221:A1 0.000384336
2 *1209:A0 0.0012083
3 *1386:X 0
4 *301:4 0.00159264
5 *1209:A0 *1136:A1 0
6 *1209:A0 *1386:A 0.00019172
7 *1209:A0 *326:48 0
8 *1317:D *1209:A0 5.33433e-05
9 *1317:RESET_B *1209:A0 1.05947e-05
10 *1323:CLK *1209:A0 6.05161e-06
11 *1323:CLK *1221:A1 2.89114e-05
12 *1323:D *1221:A1 2.40603e-05
13 *126:203 *1221:A1 1.02504e-05
14 *126:216 *1221:A1 0.000117896
15 *243:86 *1209:A0 0.000154762
16 *246:26 *1221:A1 0
*RES
1 *1386:X *301:4 9.3 
2 *301:4 *1209:A0 33.925 
3 *301:4 *1221:A1 23.7643 
*END

*D_NET *302 0.00032144
*CONN
*I *1222:A I *D sky130_fd_sc_hd__clkbuf_1
*I *1387:X O *D sky130_fd_sc_hd__dlygate4sd3_1
*CAP
1 *1222:A 1.5947e-05
2 *1387:X 1.5947e-05
3 *1222:A *1132:A0 0.000144773
4 *1222:A *1392:A 0.000144773
*RES
1 *1387:X *1222:A 19.9571 
*END

*D_NET *303 0.00224293
*CONN
*I *1153:B2 I *D sky130_fd_sc_hd__a22o_1
*I *1152:A2 I *D sky130_fd_sc_hd__o211a_1
*I *1157:A1 I *D sky130_fd_sc_hd__mux2_1
*I *1421:X O *D sky130_fd_sc_hd__buf_1
*CAP
1 *1153:B2 0.000128572
2 *1152:A2 8.34282e-06
3 *1157:A1 4.41212e-05
4 *1421:X 0.000365789
5 *303:27 0.000393217
6 *303:6 0.000666212
7 *1157:A1 *1157:A0 3.11088e-05
8 *303:27 *1157:A0 1.97617e-05
9 *1152:B1 *1152:A2 1.02301e-05
10 *1152:B1 *303:27 7.25873e-06
11 *1152:C1 *1152:A2 4.99222e-06
12 *1152:C1 *303:27 5.46383e-06
13 *1153:A1 *1153:B2 3.50746e-05
14 *1153:B1 *1152:A2 1.02301e-05
15 *1153:B1 *1153:B2 0.000142449
16 *1154:A1 *1153:B2 5.66971e-05
17 *1154:B1 *1153:B2 5.10039e-05
18 *1157:S *303:27 4.84073e-05
19 *1158:A *303:6 5.35386e-05
20 *1295:CLK *303:27 7.74068e-05
21 *1295:D *303:6 5.64835e-06
22 *93:95 *303:27 7.74068e-05
*RES
1 *1421:X *303:6 13.9429 
2 *303:6 *1157:A1 10.5679 
3 *303:6 *303:27 13.4821 
4 *303:27 *1152:A2 9.72857 
5 *303:27 *1153:B2 12.7286 
*END

*D_NET *304 0.0037742
*CONN
*I *1217:A1 I *D sky130_fd_sc_hd__mux2_1
*I *1205:A0 I *D sky130_fd_sc_hd__mux2_1
*I *1388:X O *D sky130_fd_sc_hd__dlygate4sd3_1
*CAP
1 *1217:A1 5.89938e-05
2 *1205:A0 0.000672894
3 *1388:X 0
4 *304:4 0.000731888
5 *1205:A0 *1102:B 1.32293e-05
6 *1205:A0 *1132:A1 4.77002e-05
7 *1205:A0 *1134:A1 3.85148e-05
8 *1205:A0 *1205:A1 2.12733e-05
9 *1205:A0 *1219:A0 8.85603e-05
10 *1205:A0 *1388:A 5.45307e-05
11 *1217:A1 *1102:B 0.00035577
12 *1205:S *1205:A0 9.84673e-05
13 *1217:S *1217:A1 0.000139337
14 *1219:S *1205:A0 7.51484e-05
15 *1220:A *1205:A0 2.06653e-05
16 *1322:CLK *1205:A0 1.02132e-05
17 *1322:D *1205:A0 5.09591e-05
18 *126:199 *1205:A0 0.00026974
19 *126:199 *1217:A1 0.000215641
20 *243:49 *1205:A0 0.000679195
21 *243:62 *1205:A0 9.21933e-05
22 *256:150 *1205:A0 3.92878e-05
*RES
1 *1388:X *304:4 9.3 
2 *304:4 *1205:A0 35.8536 
3 *304:4 *1217:A1 12.7107 
*END

*D_NET *305 0.00388125
*CONN
*I *1213:A1 I *D sky130_fd_sc_hd__mux2_1
*I *1134:A0 I *D sky130_fd_sc_hd__mux2_1
*I *1389:X O *D sky130_fd_sc_hd__dlygate4sd3_1
*CAP
1 *1213:A1 0
2 *1134:A0 0.00116073
3 *1389:X 0.000225902
4 *305:12 0.00138664
5 *1134:A0 *1215:A0 0.000258396
6 *305:12 *1214:A 4.48347e-06
7 *305:12 *372:10 2.09722e-05
8 *1215:A1 *1134:A0 0.000331025
9 *1288:CLK *1134:A0 9.84451e-05
10 *1288:RESET_B *1134:A0 3.2674e-05
11 *1289:D *1134:A0 1.42165e-05
12 *1318:CLK *1134:A0 0.000226279
13 *1319:D *305:12 6.35976e-05
14 *1385:A *1134:A0 2.34612e-05
15 *126:216 *1134:A0 3.44274e-05
*RES
1 *1389:X *305:12 22.3 
2 *305:12 *1134:A0 38.2107 
3 *305:12 *1213:A1 9.3 
*END

*D_NET *306 0.000478997
*CONN
*I *1214:A I *D sky130_fd_sc_hd__clkbuf_1
*I *1390:X O *D sky130_fd_sc_hd__dlygate4sd3_1
*CAP
1 *1214:A 0.000198553
2 *1390:X 0.000198553
3 *1319:D *1214:A 7.74068e-05
4 *305:12 *1214:A 4.48347e-06
*RES
1 *1390:X *1214:A 30.6 
*END

*D_NET *307 0.00274751
*CONN
*I *1225:A1 I *D sky130_fd_sc_hd__mux2_1
*I *1196:A0 I *D sky130_fd_sc_hd__mux2_1
*I *1391:X O *D sky130_fd_sc_hd__dlygate4sd3_1
*CAP
1 *1225:A1 0.000984156
2 *1196:A0 0.000348812
3 *1391:X 0
4 *307:4 0.00133297
5 *1196:A0 *325:76 5.71472e-05
6 *1225:A1 *1106:B 0
7 *1225:A1 *1225:A0 0
8 *1225:A1 *364:23 0
9 *1196:S *1196:A0 2.44318e-05
10 *1226:A *1225:A1 0
11 *256:246 *1225:A1 0
*RES
1 *1391:X *307:4 9.3 
2 *307:4 *1196:A0 14.7821 
3 *307:4 *1225:A1 31.6036 
*END

*D_NET *308 0.00378855
*CONN
*I *1211:A1 I *D sky130_fd_sc_hd__mux2_1
*I *1132:A0 I *D sky130_fd_sc_hd__mux2_1
*I *1392:X O *D sky130_fd_sc_hd__dlygate4sd3_1
*CAP
1 *1211:A1 0.000347356
2 *1132:A0 0.00101578
3 *1392:X 0
4 *308:4 0.00136314
5 *1132:A0 *1132:A1 3.08664e-05
6 *1132:A0 *1392:A 0.000426149
7 *1211:A1 *1211:A0 5.71472e-05
8 *1132:S *1132:A0 1.59373e-05
9 *1135:A *1132:A0 0.000184521
10 *1212:A *1211:A1 6.3492e-05
11 *1222:A *1132:A0 0.000144773
12 *1289:D *1132:A0 0.000139388
*RES
1 *1392:X *308:4 9.3 
2 *308:4 *1132:A0 27.9071 
3 *308:4 *1211:A1 15.175 
*END

*D_NET *309 0.000926507
*CONN
*I *1249:A0 I *D sky130_fd_sc_hd__mux2_1
*I *1393:X O *D sky130_fd_sc_hd__dlygate4sd3_1
*CAP
1 *1249:A0 0.000211012
2 *1393:X 0.000211012
3 *1249:A1 *1249:A0 5.65955e-05
4 *1249:S *1249:A0 5.49489e-05
5 *1252:A0 *1249:A0 0.000122091
6 *1252:A1 *1249:A0 5.33005e-05
7 *1252:S *1249:A0 0.000137583
8 *1253:A *1249:A0 5.62995e-05
9 *245:34 *1249:A0 2.36643e-05
*RES
1 *1393:X *1249:A0 24.475 
*END

*D_NET *310 0.000847387
*CONN
*I *1157:A0 I *D sky130_fd_sc_hd__mux2_1
*I *1395:X O *D sky130_fd_sc_hd__dlygate4sd3_1
*CAP
1 *1157:A0 0.000290833
2 *1395:X 0.000290833
3 *1157:A1 *1157:A0 3.11088e-05
4 *1157:S *1157:A0 7.25873e-06
5 *1295:CLK *1157:A0 0.000171355
6 *256:86 *1157:A0 3.6236e-05
7 *303:27 *1157:A0 1.97617e-05
*RES
1 *1395:X *1157:A0 33.2607 
*END

*D_NET *311 0.000262968
*CONN
*I *1189:A0 I *D sky130_fd_sc_hd__mux2_1
*I *1396:X O *D sky130_fd_sc_hd__dlygate4sd3_1
*CAP
1 *1189:A0 0.000131484
2 *1396:X 0.000131484
*RES
1 *1396:X *1189:A0 20.7786 
*END

*D_NET *312 0.000459579
*CONN
*I *1202:A0 I *D sky130_fd_sc_hd__mux2_1
*I *1397:X O *D sky130_fd_sc_hd__dlygate4sd3_1
*CAP
1 *1202:A0 4.52717e-05
2 *1397:X 4.52717e-05
3 *1130:B1 *1202:A0 6.87673e-05
4 *1202:S *1202:A0 5.52238e-05
5 *1204:A2 *1202:A0 1.55885e-05
6 *255:23 *1202:A0 0.000229456
*RES
1 *1397:X *1202:A0 20.7786 
*END

*D_NET *313 0.00107269
*CONN
*I *1191:A0 I *D sky130_fd_sc_hd__mux2_1
*I *1398:X O *D sky130_fd_sc_hd__dlygate4sd3_1
*CAP
1 *1191:A0 0.000305001
2 *1398:X 0.000305001
3 *1192:A *1191:A0 0
4 *93:164 *1191:A0 4.33438e-05
5 *251:8 *1191:A0 5.52302e-05
6 *251:15 *1191:A0 0.000188586
7 *256:821 *1191:A0 0.000175526
*RES
1 *1398:X *1191:A0 33.2429 
*END

*D_NET *314 0.00538798
*CONN
*I *1154:A2 I *D sky130_fd_sc_hd__o221a_2
*I *1159:A2 I *D sky130_fd_sc_hd__a21o_1
*I *1153:A2 I *D sky130_fd_sc_hd__a22o_1
*I *1422:X O *D sky130_fd_sc_hd__buf_1
*CAP
1 *1154:A2 2.96537e-05
2 *1159:A2 0.000355232
3 *1153:A2 2.06553e-05
4 *1422:X 0.000868618
5 *314:18 0.000801865
6 *314:10 0.00132425
7 *1159:A2 *1149:A 0.00024533
8 *1159:A2 *1403:A 0
9 *314:10 *1395:A 0.000127939
10 *1153:A1 *1153:A2 3.49456e-06
11 *1153:A1 *314:18 1.98839e-05
12 *1153:B1 *314:18 0.000269428
13 *1154:A1 *314:18 6.93626e-06
14 *1154:B1 *314:18 0.000144732
15 *1154:B2 *1154:A2 2.85321e-05
16 *1155:S *314:18 9.3753e-05
17 *1159:A1 *1159:A2 0.000173273
18 *1159:B1 *1159:A2 3.1826e-05
19 *1175:A *314:10 0.000122091
20 *1309:CLK *1159:A2 0.000105708
21 *93:95 *314:18 1.86284e-05
22 *93:114 *1154:A2 6.34496e-05
23 *93:120 *314:10 0
24 *158:12 *314:10 4.45753e-05
25 *158:12 *314:18 4.85263e-05
26 *162:12 *314:18 2.2927e-05
27 *240:51 *1159:A2 7.09928e-05
28 *240:51 *314:18 9.77264e-06
29 *256:86 *314:10 0.000148869
30 *256:607 *1159:A2 0.000187042
*RES
1 *1422:X *314:10 29.55 
2 *314:10 *314:18 12.1071 
3 *314:18 *1153:A2 9.72857 
4 *314:18 *1159:A2 27.2464 
5 *314:10 *1154:A2 14.7643 
*END

*D_NET *315 0.000340718
*CONN
*I *1174:A0 I *D sky130_fd_sc_hd__mux2_1
*I *1399:X O *D sky130_fd_sc_hd__dlygate4sd3_1
*CAP
1 *1174:A0 0.000129928
2 *1399:X 0.000129928
3 *1174:A0 *1167:A 2.07878e-05
4 *1174:A0 *1399:A 2.07878e-05
5 *93:120 *1174:A0 3.92854e-05
*RES
1 *1399:X *1174:A0 29.5821 
*END

*D_NET *316 0.00147341
*CONN
*I *1200:A0 I *D sky130_fd_sc_hd__mux2_1
*I *1400:X O *D sky130_fd_sc_hd__dlygate4sd3_1
*CAP
1 *1200:A0 0.000526842
2 *1400:X 0.000526842
3 *1136:S *1200:A0 9.95826e-05
4 *1312:RESET_B *1200:A0 0.000228876
5 *145:39 *1200:A0 3.41649e-05
6 *145:67 *1200:A0 5.71014e-05
*RES
1 *1400:X *1200:A0 37.5107 
*END

*D_NET *317 0.00091135
*CONN
*I *1172:A0 I *D sky130_fd_sc_hd__mux2_1
*I *1401:X O *D sky130_fd_sc_hd__dlygate4sd3_1
*CAP
1 *1172:A0 0.000386534
2 *1401:X 0.000386534
3 *1172:A0 *319:12 1.92789e-05
4 *1169:C1 *1172:A0 6.13903e-05
5 *1172:S *1172:A0 5.76121e-05
*RES
1 *1401:X *1172:A0 33.6536 
*END

*D_NET *318 0.000450799
*CONN
*I *1146:A0 I *D sky130_fd_sc_hd__mux2_1
*I *1402:X O *D sky130_fd_sc_hd__dlygate4sd3_1
*CAP
1 *1146:A0 8.19987e-05
2 *1402:X 8.19987e-05
3 *1146:A0 *1139:A 0.000230207
4 *1146:A1 *1146:A0 5.65955e-05
*RES
1 *1402:X *1146:A0 20.7786 
*END

*D_NET *319 0.00180555
*CONN
*I *1172:A1 I *D sky130_fd_sc_hd__mux2_1
*I *1169:B1 I *D sky130_fd_sc_hd__o211a_1
*I *1423:X O *D sky130_fd_sc_hd__clkbuf_1
*CAP
1 *1172:A1 0
2 *1169:B1 0.00036707
3 *1423:X 0.00036155
4 *319:12 0.00072862
5 *1169:B1 *1169:A2 1.02301e-05
6 *1169:B1 *320:6 0.000139981
7 *1169:C1 *1169:B1 0
8 *1172:A0 *319:12 1.92789e-05
9 *1173:A *319:12 7.3847e-05
10 *1300:D *319:12 0.000104974
*RES
1 *1423:X *319:12 25.3714 
2 *319:12 *1169:B1 24.8 
3 *319:12 *1172:A1 9.3 
*END

*D_NET *320 0.00357654
*CONN
*I *1174:A1 I *D sky130_fd_sc_hd__mux2_1
*I *1170:B2 I *D sky130_fd_sc_hd__a22o_1
*I *1169:A2 I *D sky130_fd_sc_hd__o211a_1
*I *1424:X O *D sky130_fd_sc_hd__buf_1
*CAP
1 *1174:A1 0.000471453
2 *1170:B2 2.88591e-05
3 *1169:A2 2.51654e-05
4 *1424:X 0.000416995
5 *320:15 0.000629534
6 *320:6 0.000571382
7 *1174:A1 *1166:A 6.05161e-06
8 *1169:A1 *320:15 4.97967e-05
9 *1169:B1 *1169:A2 1.02301e-05
10 *1169:B1 *320:6 0.000139981
11 *1170:A1 *1174:A1 1.59373e-05
12 *1170:A2 *1174:A1 0.000107831
13 *1170:B1 *1169:A2 3.49456e-06
14 *1170:B1 *1174:A1 2.56723e-05
15 *1170:B1 *320:15 5.93268e-05
16 *1171:A2 *1174:A1 0.000181317
17 *1171:B1 *1174:A1 0.000566131
18 *1171:B1 *320:15 0.000141941
19 *1174:S *1174:A1 5.65955e-05
20 *1355:A *1174:A1 0
21 *249:16 *1174:A1 6.88475e-05
*RES
1 *1424:X *320:6 16.4071 
2 *320:6 *1169:A2 10.0321 
3 *320:6 *320:15 3 
4 *320:15 *1170:B2 10.0321 
5 *320:15 *1174:A1 29.6036 
*END

*D_NET *321 0.00240377
*CONN
*I *1371:A I *D sky130_fd_sc_hd__dlygate4sd3_1
*I *1297:Q O *D sky130_fd_sc_hd__dfrtp_1
*CAP
1 *1371:A 0.00106085
2 *1297:Q 0.00106085
3 *1298:CLK *1371:A 5.68722e-05
4 *1298:D *1371:A 1.48543e-05
5 *1298:RESET_B *1371:A 1.31213e-05
6 *256:737 *1371:A 2.41365e-05
7 *256:755 *1371:A 0.000173083
*RES
1 *1297:Q *1371:A 32.6 
*END

*D_NET *322 0.000575903
*CONN
*I *1363:A I *D sky130_fd_sc_hd__dlygate4sd3_1
*I *1298:Q O *D sky130_fd_sc_hd__dfrtp_1
*CAP
1 *1363:A 0.000264926
2 *1298:Q 0.000264926
3 *1330:RESET_B *1363:A 0
4 *1331:D *1363:A 4.605e-05
5 *256:755 *1363:A 0
*RES
1 *1298:Q *1363:A 31.6714 
*END

*D_NET *323 0.00224793
*CONN
*I *1406:A I *D sky130_fd_sc_hd__dlygate4sd3_1
*I *1299:Q O *D sky130_fd_sc_hd__dfrtp_1
*CAP
1 *1406:A 0.00076644
2 *1299:Q 0.00076644
3 *1407:A *1406:A 0.000100165
4 *275:14 *1406:A 0.000614886
*RES
1 *1299:Q *1406:A 41.725 
*END

*D_NET *324 0.0168007
*CONN
*I *1177:A1 I *D sky130_fd_sc_hd__mux2_1
*I *1132:A1 I *D sky130_fd_sc_hd__mux2_1
*I *1205:A1 I *D sky130_fd_sc_hd__mux2_1
*I *1194:A1 I *D sky130_fd_sc_hd__mux2_1
*I *1382:A I *D sky130_fd_sc_hd__dlygate4sd3_1
*I *1283:A2 I *D sky130_fd_sc_hd__a21oi_1
*I *1077:C I *D sky130_fd_sc_hd__and3_1
*I *1160:A1 I *D sky130_fd_sc_hd__mux2_1
*I *1349:Q O *D sky130_fd_sc_hd__dfrtp_4
*CAP
1 *1177:A1 0
2 *1132:A1 0.000587536
3 *1205:A1 3.25353e-05
4 *1194:A1 0.000107039
5 *1382:A 0.000197238
6 *1283:A2 0.000389651
7 *1077:C 3.08985e-05
8 *1160:A1 0.000248838
9 *1349:Q 0.000309543
10 *324:95 0.00126054
11 *324:74 0.000996931
12 *324:68 0.000631392
13 *324:55 0.000752122
14 *324:31 0.000745982
15 *324:25 0.000852801
16 *324:10 0.000912833
17 *1077:C *1077:B 2.48877e-05
18 *1132:A1 *1136:A1 0
19 *1132:A1 *1362:A 0
20 *1132:A1 *326:48 0
21 *1382:A *1181:A1 0.000128496
22 *1382:A *326:72 5.33005e-05
23 *324:25 *1164:A1 0.00022115
24 *324:25 *325:29 0.000173015
25 *324:25 *326:76 4.66056e-05
26 *324:31 *1077:B 0.000176377
27 *324:55 *325:46 0
28 *324:55 *326:76 0.000338192
29 *324:68 *325:46 0
30 *324:68 *325:61 0
31 *324:68 *326:76 3.17148e-05
32 *324:74 *325:61 2.69483e-05
33 *324:74 *325:76 2.47319e-05
34 *324:74 *326:35 0.000195927
35 *324:95 *325:76 0.000269103
36 *324:95 *326:35 6.62343e-05
37 *324:95 *326:48 0.000520052
38 *1077:A *1283:A2 2.30303e-05
39 *1132:A0 *1132:A1 3.08664e-05
40 *1132:S *1132:A1 0.000143651
41 *1133:A *1132:A1 3.18676e-05
42 *1160:A0 *1160:A1 5.65955e-05
43 *1160:S *1160:A1 0.000100261
44 *1160:S *324:10 0
45 *1161:A *1160:A1 8.37917e-05
46 *1177:A0 *324:74 2.85234e-05
47 *1178:A *324:74 5.08914e-05
48 *1181:A0 *1382:A 0.000176481
49 *1182:A *324:68 0.000265958
50 *1194:A0 *1194:A1 0.000441001
51 *1194:S *1194:A1 0.000167658
52 *1194:S *324:74 5.5764e-05
53 *1194:S *324:95 0.000546716
54 *1205:A0 *1132:A1 4.77002e-05
55 *1205:A0 *1205:A1 2.12733e-05
56 *1205:S *1132:A1 0.000141568
57 *1205:S *1205:A1 5.49995e-05
58 *1219:S *1132:A1 1.32693e-05
59 *1284:A *1283:A2 0.000310847
60 *1284:B *1283:A2 4.01118e-05
61 *1285:A *1077:C 8.07205e-05
62 *1285:A *324:31 0.000738382
63 *1297:D *324:10 8.00806e-05
64 *1297:RESET_B *324:10 1.18064e-05
65 *1299:CLK *324:31 9.13509e-05
66 *1305:D *324:68 0.000313458
67 *1324:CLK *324:74 0.000188227
68 *1329:RESET_B *1382:A 9.90431e-05
69 *94:25 *1283:A2 9.33486e-05
70 *162:44 *324:74 0.000163703
71 *173:34 *324:95 0.000123594
72 *240:92 *1283:A2 0.000243984
73 *240:94 *1283:A2 0.000243991
74 *241:18 *324:10 0
75 *241:68 *324:74 0.00014925
76 *256:150 *1132:A1 0.000139734
77 *256:150 *1205:A1 0.00013185
78 *256:168 *324:95 0.000318604
79 *256:525 *1132:A1 0.000171878
80 *256:537 *1132:A1 5.16489e-05
81 *256:722 *1160:A1 1.92789e-05
82 *256:722 *324:10 2.58997e-05
83 *291:12 *1283:A2 8.25843e-06
84 *298:18 *1382:A 0.000127168
85 *298:18 *324:10 0
*RES
1 *1349:Q *324:10 19.925 
2 *324:10 *1160:A1 18.3714 
3 *324:10 *324:25 7.41071 
4 *324:25 *324:31 14.0893 
5 *324:31 *1077:C 10.1036 
6 *324:31 *1283:A2 27.7107 
7 *324:25 *324:55 4.375 
8 *324:55 *1382:A 19.675 
9 *324:55 *324:68 14.0357 
10 *324:68 *324:74 13.0893 
11 *324:74 *1194:A1 18.0321 
12 *324:74 *324:95 24.4643 
13 *324:95 *1205:A1 10.675 
14 *324:95 *1132:A1 32.4429 
15 *324:68 *1177:A1 9.3 
*END

*D_NET *325 0.0165363
*CONN
*I *1196:A1 I *D sky130_fd_sc_hd__mux2_1
*I *1134:A1 I *D sky130_fd_sc_hd__mux2_1
*I *1207:A1 I *D sky130_fd_sc_hd__mux2_1
*I *1376:A I *D sky130_fd_sc_hd__dlygate4sd3_1
*I *1179:A1 I *D sky130_fd_sc_hd__mux2_1
*I *1077:B I *D sky130_fd_sc_hd__and3_1
*I *1162:A1 I *D sky130_fd_sc_hd__mux2_1
*I *1350:Q O *D sky130_fd_sc_hd__dfrtp_4
*CAP
1 *1196:A1 0
2 *1134:A1 0.00119911
3 *1207:A1 0.000819743
4 *1376:A 0
5 *1179:A1 4.40091e-05
6 *1077:B 0.000639581
7 *1162:A1 0.000508136
8 *1350:Q 0
9 *325:88 0.00246627
10 *325:76 0.000757981
11 *325:61 0.000654861
12 *325:46 0.000818989
13 *325:29 0.0012524
14 *325:4 0.000690277
15 *1134:A1 *1384:A 0.000266931
16 *1134:A1 *1388:A 0.000441532
17 *1162:A1 *1164:A1 0.00036371
18 *325:46 *1375:A 9.25014e-06
19 *325:61 *1375:A 9.91086e-05
20 *325:88 *1374:A 7.89362e-05
21 *1077:C *1077:B 2.48877e-05
22 *1135:A *1134:A1 0.00033973
23 *1136:A0 *1134:A1 6.3629e-05
24 *1164:A0 *1162:A1 4.48647e-05
25 *1178:A *325:61 2.81581e-05
26 *1179:A0 *1179:A1 0.000139907
27 *1179:S *1179:A1 2.89016e-05
28 *1196:A0 *325:76 5.71472e-05
29 *1196:S *325:76 0.000271345
30 *1197:A *325:76 2.59355e-05
31 *1205:A0 *1134:A1 3.85148e-05
32 *1207:A0 *1207:A1 0.000407807
33 *1219:S *325:88 0.000102837
34 *1227:A1 *325:88 0.000100248
35 *1285:A *1077:B 3.96115e-06
36 *1289:D *1134:A1 5.76945e-05
37 *1299:CLK *1077:B 9.58632e-05
38 *1299:CLK *325:29 0.000140243
39 *1303:D *325:61 0.000126278
40 *1303:RESET_B *325:61 4.97961e-05
41 *1303:RESET_B *325:76 3.24964e-05
42 *1305:D *325:46 7.67315e-05
43 *1309:RESET_B *325:76 2.09897e-05
44 *1315:CLK *1207:A1 9.84673e-05
45 *1322:D *1134:A1 3.54498e-05
46 *1324:CLK *325:61 0.000197385
47 *1328:CLK *1179:A1 1.39841e-05
48 *94:8 *1077:B 5.33005e-05
49 *126:180 *325:88 9.61008e-05
50 *154:34 *1162:A1 2.83425e-05
51 *241:10 *325:46 0.000100726
52 *241:53 *325:46 0.000106552
53 *241:68 *325:46 5.66551e-05
54 *241:68 *325:61 0.000410366
55 *243:62 *1134:A1 6.53704e-05
56 *243:112 *1134:A1 0.000141729
57 *256:158 *325:88 0.00026876
58 *256:168 *325:76 0.000114045
59 *256:168 *325:88 0
60 *256:170 *325:76 0.000254819
61 *256:184 *325:76 5.28506e-05
62 *298:18 *325:46 0.000382423
63 *324:25 *325:29 0.000173015
64 *324:31 *1077:B 0.000176377
65 *324:55 *325:46 0
66 *324:68 *325:46 0
67 *324:68 *325:61 0
68 *324:74 *325:61 2.69483e-05
69 *324:74 *325:76 2.47319e-05
70 *324:95 *325:76 0.000269103
*RES
1 *1350:Q *325:4 9.3 
2 *325:4 *1162:A1 25.55 
3 *325:4 *325:29 12.6071 
4 *325:29 *1077:B 18.6214 
5 *325:29 *325:46 15.5536 
6 *325:46 *1179:A1 15.1571 
7 *325:46 *325:61 9.89286 
8 *325:61 *1376:A 13.8 
9 *325:61 *325:76 14.625 
10 *325:76 *325:88 19.4286 
11 *325:88 *1207:A1 20.1036 
12 *325:88 *1134:A1 41.55 
13 *325:76 *1196:A1 9.3 
*END

*D_NET *326 0.0110258
*CONN
*I *1181:A1 I *D sky130_fd_sc_hd__mux2_1
*I *1369:A I *D sky130_fd_sc_hd__dlygate4sd3_1
*I *1164:A1 I *D sky130_fd_sc_hd__mux2_1
*I *1136:A1 I *D sky130_fd_sc_hd__mux2_1
*I *1209:A1 I *D sky130_fd_sc_hd__mux2_1
*I *1198:A1 I *D sky130_fd_sc_hd__mux2_1
*I *1078:A I *D sky130_fd_sc_hd__and2_1
*I *1351:Q O *D sky130_fd_sc_hd__dfrtp_4
*CAP
1 *1181:A1 3.38416e-05
2 *1369:A 0
3 *1164:A1 0.000170566
4 *1136:A1 0.000421867
5 *1209:A1 0.000123433
6 *1198:A1 0
7 *1078:A 0.000320276
8 *1351:Q 0
9 *326:76 0.000361991
10 *326:72 0.000465552
11 *326:48 0.00109185
12 *326:35 0.00142764
13 *326:27 0.00132284
14 *326:4 0.000521729
15 *326:48 *1362:A 0.000125731
16 *1078:B *1078:A 5.38444e-06
17 *1132:A1 *1136:A1 0
18 *1132:A1 *326:48 0
19 *1136:A0 *1136:A1 3.69047e-06
20 *1162:A1 *1164:A1 0.00036371
21 *1164:A0 *1164:A1 5.65955e-05
22 *1164:S *1164:A1 1.51571e-05
23 *1165:A *1164:A1 7.70015e-05
24 *1165:A *326:76 5.54817e-06
25 *1181:A0 *1181:A1 5.52238e-05
26 *1182:A *1181:A1 5.52302e-05
27 *1182:A *326:72 9.60875e-05
28 *1194:S *326:35 0.000599222
29 *1197:A *326:35 7.83587e-05
30 *1205:S *1209:A1 4.884e-05
31 *1205:S *326:48 2.20477e-05
32 *1206:A *326:48 0.000132905
33 *1209:A0 *1136:A1 0
34 *1209:A0 *326:48 0
35 *1209:S *1209:A1 1.04232e-05
36 *1287:D *1078:A 0.000141289
37 *1310:CLK *326:35 5.85531e-05
38 *1382:A *1181:A1 0.000128496
39 *1382:A *326:72 5.33005e-05
40 *94:25 *1078:A 2.11336e-05
41 *126:10 *326:76 7.73184e-05
42 *154:34 *1164:A1 0.000147774
43 *173:34 *326:35 0.000115693
44 *184:49 *1209:A1 2.27416e-05
45 *241:10 *326:35 3.34672e-05
46 *241:53 *326:35 7.30398e-05
47 *241:68 *326:35 0.000151454
48 *243:19 *326:35 5.76278e-05
49 *243:19 *326:48 0
50 *243:43 *326:48 0
51 *243:86 *1136:A1 0
52 *243:86 *326:48 0
53 *243:97 *1136:A1 0
54 *256:537 *1136:A1 0
55 *256:621 *1078:A 8.24912e-05
56 *291:12 *1078:A 0
57 *291:12 *326:35 0.000372566
58 *298:18 *326:72 5.62934e-05
59 *324:25 *1164:A1 0.00022115
60 *324:25 *326:76 4.66056e-05
61 *324:55 *326:76 0.000338192
62 *324:68 *326:76 3.17148e-05
63 *324:74 *326:35 0.000195927
64 *324:95 *326:35 6.62343e-05
65 *324:95 *326:48 0.000520052
*RES
1 *1351:Q *326:4 9.3 
2 *326:4 *1078:A 25.1571 
3 *326:4 *326:27 3 
4 *326:27 *326:35 29.9821 
5 *326:35 *1198:A1 13.8 
6 *326:35 *326:48 12.9286 
7 *326:48 *1209:A1 15.9964 
8 *326:48 *1136:A1 21.1393 
9 *326:27 *326:72 4.23214 
10 *326:72 *326:76 9.78571 
11 *326:76 *1164:A1 20.4964 
12 *326:76 *1369:A 13.8 
13 *326:72 *1181:A1 10.6571 
*END

*D_NET *327 0.00141438
*CONN
*I *1140:A I *D sky130_fd_sc_hd__inv_2
*I *1144:A0 I *D sky130_fd_sc_hd__mux2_1
*I *1291:Q O *D sky130_fd_sc_hd__dfrtp_1
*CAP
1 *1140:A 0.000177451
2 *1144:A0 6.24635e-05
3 *1291:Q 0.000151625
4 *327:12 0.000391539
5 *1144:A1 *1140:A 8.94417e-05
6 *1147:A *1140:A 5.49995e-05
7 *1292:CLK *1140:A 0.000108817
8 *1292:CLK *327:12 5.33882e-05
9 *93:10 *1144:A0 0.00014285
10 *93:10 *327:12 0.000181803
11 *256:23 *1140:A 0
*RES
1 *1291:Q *327:12 21.4071 
2 *327:12 *1144:A0 10.6571 
3 *327:12 *1140:A 22.5321 
*END

*D_NET *328 0.00175187
*CONN
*I *1402:A I *D sky130_fd_sc_hd__dlygate4sd3_1
*I *1139:A I *D sky130_fd_sc_hd__inv_2
*I *1292:Q O *D sky130_fd_sc_hd__dfrtp_1
*CAP
1 *1402:A 9.26468e-05
2 *1139:A 0.000100144
3 *1292:Q 6.67262e-05
4 *328:10 0.000259517
5 *1077:A *328:10 0.000126272
6 *1146:A0 *1139:A 0.000230207
7 *1146:A1 *1139:A 0.000251143
8 *154:27 *1139:A 0.00021403
9 *154:34 *1139:A 0.000185197
10 *154:34 *1402:A 0.000225988
*RES
1 *1292:Q *328:10 19.9429 
2 *328:10 *1139:A 14.7643 
3 *328:10 *1402:A 11.4786 
*END

*D_NET *329 0.000939678
*CONN
*I *1372:A I *D sky130_fd_sc_hd__dlygate4sd3_1
*I *1138:A I *D sky130_fd_sc_hd__inv_2
*I *1293:Q O *D sky130_fd_sc_hd__dfrtp_1
*CAP
1 *1372:A 0.000186874
2 *1138:A 0
3 *1293:Q 0.000104404
4 *329:10 0.000291278
5 *1155:S *1372:A 4.46186e-06
6 *1294:RESET_B *1372:A 0
7 *240:34 *1372:A 0.000185403
8 *240:34 *329:10 7.15503e-05
9 *240:38 *1372:A 9.57064e-05
*RES
1 *1293:Q *329:10 11.5143 
2 *329:10 *1138:A 9.3 
3 *329:10 *1372:A 22.6214 
*END

*D_NET *330 0.000728608
*CONN
*I *1365:A I *D sky130_fd_sc_hd__dlygate4sd3_1
*I *1303:Q O *D sky130_fd_sc_hd__dfrtp_1
*CAP
1 *1365:A 0.00035926
2 *1303:Q 0.00035926
3 *1327:RESET_B *1365:A 1.00887e-05
*RES
1 *1303:Q *1365:A 32.2429 
*END

*D_NET *331 0.000599839
*CONN
*I *1375:A I *D sky130_fd_sc_hd__dlygate4sd3_1
*I *1304:Q O *D sky130_fd_sc_hd__dfrtp_1
*CAP
1 *1375:A 0.000178288
2 *1304:Q 0.000178288
3 *1179:A0 *1375:A 5.52302e-05
4 *1179:S *1375:A 3.18676e-05
5 *1305:D *1375:A 4.78056e-05
6 *325:46 *1375:A 9.25014e-06
7 *325:61 *1375:A 9.91086e-05
*RES
1 *1304:Q *1375:A 30.85 
*END

*D_NET *332 0.000611099
*CONN
*I *1379:A I *D sky130_fd_sc_hd__dlygate4sd3_1
*I *1305:Q O *D sky130_fd_sc_hd__dfrtp_1
*CAP
1 *1379:A 0.000234772
2 *1305:Q 0.000234772
3 *1234:A *1379:A 0.000141555
*RES
1 *1305:Q *1379:A 22.8321 
*END

*D_NET *333 0.00171773
*CONN
*I *1151:A I *D sky130_fd_sc_hd__inv_2
*I *1155:A0 I *D sky130_fd_sc_hd__mux2_1
*I *1294:Q O *D sky130_fd_sc_hd__dfrtp_1
*CAP
1 *1151:A 0.00020444
2 *1155:A0 3.11165e-05
3 *1294:Q 0.000253597
4 *333:8 0.000489153
5 *1155:A1 *1151:A 0.00039229
6 *1155:A1 *1155:A0 7.83587e-05
7 *1156:A *1151:A 0
8 *1295:CLK *1151:A 2.40189e-05
9 *93:95 *1151:A 0.000103983
10 *93:95 *1155:A0 4.15914e-05
11 *256:54 *333:8 9.91812e-05
*RES
1 *1294:Q *333:8 16.8 
2 *333:8 *1155:A0 14.8357 
3 *333:8 *1151:A 19.3893 
*END

*D_NET *334 0.000690832
*CONN
*I *1395:A I *D sky130_fd_sc_hd__dlygate4sd3_1
*I *1150:A I *D sky130_fd_sc_hd__inv_2
*I *1295:Q O *D sky130_fd_sc_hd__dfrtp_1
*CAP
1 *1395:A 8.90562e-05
2 *1150:A 4.64634e-05
3 *1295:Q 9.42681e-05
4 *334:6 0.000229788
5 *1295:RESET_B *334:6 6.05161e-06
6 *256:76 *1150:A 5.50052e-05
7 *256:76 *334:6 4.22609e-05
8 *314:10 *1395:A 0.000127939
*RES
1 *1295:Q *334:6 11.0679 
2 *334:6 *1150:A 10.5679 
3 *334:6 *1395:A 20.3714 
*END

*D_NET *335 0.00198725
*CONN
*I *1149:A I *D sky130_fd_sc_hd__inv_2
*I *1403:A I *D sky130_fd_sc_hd__dlygate4sd3_1
*I *1296:Q O *D sky130_fd_sc_hd__dfrtp_1
*CAP
1 *1149:A 0.000277772
2 *1403:A 0.000151934
3 *1296:Q 7.64451e-05
4 *335:6 0.000506151
5 *1159:A1 *1403:A 2.16394e-05
6 *1159:A2 *1149:A 0.00024533
7 *1159:A2 *1403:A 0
8 *1309:CLK *1149:A 0.000124749
9 *93:120 *1403:A 1.25366e-05
10 *162:44 *1149:A 0.000137097
11 *162:44 *335:6 4.84073e-05
12 *240:51 *1149:A 0.000139202
13 *256:60 *1403:A 7.7591e-05
14 *256:76 *1403:A 0.000143967
15 *256:607 *1149:A 2.44318e-05
*RES
1 *1296:Q *335:6 10.2464 
2 *335:6 *1403:A 21.4607 
3 *335:6 *1149:A 24.1929 
*END

*D_NET *336 8.42129e-05
*CONN
*I *1377:A I *D sky130_fd_sc_hd__dlygate4sd3_1
*I *1309:Q O *D sky130_fd_sc_hd__dfrtp_1
*CAP
1 *1377:A 2.76557e-05
2 *1309:Q 2.76557e-05
3 *1309:RESET_B *1377:A 2.89016e-05
*RES
1 *1309:Q *1377:A 19.1357 
*END

*D_NET *337 0.000403191
*CONN
*I *1391:A I *D sky130_fd_sc_hd__dlygate4sd3_1
*I *1310:Q O *D sky130_fd_sc_hd__dfrtp_1
*CAP
1 *1391:A 0.000110294
2 *1310:Q 0.000110294
3 *1325:CLK *1391:A 0
4 *126:180 *1391:A 0.000125731
5 *256:234 *1391:A 5.68713e-05
*RES
1 *1310:Q *1391:A 29.7786 
*END

*D_NET *338 0.000328961
*CONN
*I *1374:A I *D sky130_fd_sc_hd__dlygate4sd3_1
*I *1311:Q O *D sky130_fd_sc_hd__dfrtp_1
*CAP
1 *1374:A 0.000105146
2 *1311:Q 0.000105146
3 *126:180 *1374:A 3.9733e-05
4 *325:88 *1374:A 7.89362e-05
*RES
1 *1311:Q *1374:A 29.9036 
*END

*D_NET *339 0.00244608
*CONN
*I *1401:A I *D sky130_fd_sc_hd__dlygate4sd3_1
*I *1168:A I *D sky130_fd_sc_hd__inv_2
*I *1300:Q O *D sky130_fd_sc_hd__dfrtp_1
*CAP
1 *1401:A 0.000289734
2 *1168:A 0.000504857
3 *1300:Q 5.23871e-05
4 *339:8 0.000846978
5 *1168:A *1167:A 0
6 *1169:C1 *1168:A 1.74352e-05
7 *1173:A *1168:A 0
8 *1175:A *1168:A 0
9 *1300:RESET_B *339:8 2.51343e-06
10 *1301:CLK *1168:A 0.000117353
11 *1301:RESET_B *1168:A 9.51514e-06
12 *169:12 *1168:A 4.46186e-06
13 *169:12 *1401:A 0.000161971
14 *242:8 *1168:A 3.17163e-05
15 *242:8 *1401:A 0.000100421
16 *242:36 *1401:A 6.2117e-05
17 *256:86 *1168:A 0.00013059
18 *256:100 *1168:A 0.00010326
19 *256:112 *1168:A 0
20 *256:112 *339:8 1.07719e-05
*RES
1 *1300:Q *339:8 14.3357 
2 *339:8 *1168:A 22.9786 
3 *339:8 *1401:A 20.3 
*END

*D_NET *340 0.00119239
*CONN
*I *1399:A I *D sky130_fd_sc_hd__dlygate4sd3_1
*I *1167:A I *D sky130_fd_sc_hd__inv_2
*I *1301:Q O *D sky130_fd_sc_hd__dfrtp_1
*CAP
1 *1399:A 0.00016784
2 *1167:A 0.000381953
3 *1301:Q 0
4 *340:4 0.000549793
5 *1168:A *1167:A 0
6 *1174:A0 *1167:A 2.07878e-05
7 *1174:A0 *1399:A 2.07878e-05
8 *1175:A *1167:A 3.92854e-05
9 *93:120 *1167:A 0
10 *256:112 *1167:A 1.19402e-05
*RES
1 *1301:Q *340:4 9.3 
2 *340:4 *1167:A 24.1036 
3 *340:4 *1399:A 12.3 
*END

*D_NET *341 0.00152965
*CONN
*I *1361:A I *D sky130_fd_sc_hd__dlygate4sd3_1
*I *1166:A I *D sky130_fd_sc_hd__inv_2
*I *1302:Q O *D sky130_fd_sc_hd__dfrtp_1
*CAP
1 *1361:A 8.81254e-05
2 *1166:A 0.000199845
3 *1302:Q 0.000156315
4 *341:8 0.000444285
5 *1170:A2 *1166:A 5.33005e-05
6 *1171:A1 *1166:A 1.98839e-05
7 *1174:A1 *1166:A 6.05161e-06
8 *1176:A2 *1166:A 9.15842e-06
9 *1176:A2 *1361:A 0.000114861
10 *1302:RESET_B *341:8 3.18257e-05
11 *249:16 *1166:A 0.000269222
12 *256:126 *341:8 0.000136772
*RES
1 *1302:Q *341:8 15.9786 
2 *341:8 *1166:A 18.2107 
3 *341:8 *1361:A 15.4429 
*END

*D_NET *342 0.00128614
*CONN
*I *1388:A I *D sky130_fd_sc_hd__dlygate4sd3_1
*I *1315:Q O *D sky130_fd_sc_hd__dfrtp_1
*CAP
1 *1388:A 0.000294137
2 *1315:Q 0.000294137
3 *1134:A1 *1388:A 0.000441532
4 *1205:A0 *1388:A 5.45307e-05
5 *1220:A *1388:A 0.000178501
6 *1322:D *1388:A 2.33012e-05
*RES
1 *1315:Q *1388:A 26.0464 
*END

*D_NET *343 0.00121991
*CONN
*I *1362:A I *D sky130_fd_sc_hd__dlygate4sd3_1
*I *1316:Q O *D sky130_fd_sc_hd__dfrtp_1
*CAP
1 *1362:A 0.000354173
2 *1316:Q 0.000354173
3 *1132:A1 *1362:A 0
4 *1205:S *1362:A 5.10822e-05
5 *243:49 *1362:A 0.000271352
6 *256:150 *1362:A 6.33946e-05
7 *326:48 *1362:A 0.000125731
*RES
1 *1316:Q *1362:A 33.475 
*END

*D_NET *344 0.000467433
*CONN
*I *1386:A I *D sky130_fd_sc_hd__dlygate4sd3_1
*I *1317:Q O *D sky130_fd_sc_hd__dfrtp_1
*CAP
1 *1386:A 0.000137856
2 *1317:Q 0.000137856
3 *1209:A0 *1386:A 0.00019172
*RES
1 *1317:Q *1386:A 22.0107 
*END

*D_NET *345 0.000916871
*CONN
*I *1185:A I *D sky130_fd_sc_hd__inv_2
*I *1396:A I *D sky130_fd_sc_hd__dlygate4sd3_1
*I *1306:Q O *D sky130_fd_sc_hd__dfrtp_1
*CAP
1 *1185:A 0.000149192
2 *1396:A 6.01646e-05
3 *1306:Q 9.45228e-05
4 *345:8 0.000303879
5 *1186:C1 *1185:A 2.89114e-05
6 *1187:B2 *1185:A 5.33433e-05
7 *1189:S *1185:A 0
8 *93:139 *1185:A 0
9 *93:147 *1185:A 0.000150625
10 *93:147 *1396:A 7.62323e-05
11 *242:60 *1185:A 0
12 *242:75 *1185:A 0
*RES
1 *1306:Q *345:8 15.4429 
2 *345:8 *1396:A 15.1571 
3 *345:8 *1185:A 17.3 
*END

*D_NET *346 0.00203208
*CONN
*I *1398:A I *D sky130_fd_sc_hd__dlygate4sd3_1
*I *1184:A I *D sky130_fd_sc_hd__inv_2
*I *1307:Q O *D sky130_fd_sc_hd__dfrtp_1
*CAP
1 *1398:A 0.000192411
2 *1184:A 0.000405405
3 *1307:Q 0
4 *346:4 0.000597816
5 *1192:A *1184:A 0
6 *1307:RESET_B *1184:A 4.90118e-05
7 *93:164 *1398:A 0.000298
8 *180:12 *1184:A 9.24825e-05
9 *242:81 *1184:A 8.37235e-05
10 *251:8 *1184:A 0.000230475
11 *252:12 *1398:A 0
12 *256:811 *1184:A 8.27532e-05
*RES
1 *1307:Q *346:4 9.3 
2 *346:4 *1184:A 25.5321 
3 *346:4 *1398:A 22.8179 
*END

*D_NET *347 0.00134016
*CONN
*I *1383:A I *D sky130_fd_sc_hd__dlygate4sd3_1
*I *1183:A I *D sky130_fd_sc_hd__inv_2
*I *1308:Q O *D sky130_fd_sc_hd__dfrtp_1
*CAP
1 *1383:A 0.00016528
2 *1183:A 0.000361039
3 *1308:Q 7.21333e-05
4 *347:6 0.000598453
5 *1136:S *1383:A 1.00887e-05
6 *1308:RESET_B *1183:A 4.81555e-05
7 *1308:RESET_B *1383:A 3.17148e-05
8 *1308:RESET_B *347:6 5.33005e-05
*RES
1 *1308:Q *347:6 10.2464 
2 *347:6 *1183:A 22.9429 
3 *347:6 *1383:A 21.4607 
*END

*D_NET *348 0.00153018
*CONN
*I *1392:A I *D sky130_fd_sc_hd__dlygate4sd3_1
*I *1288:Q O *D sky130_fd_sc_hd__dfrtp_1
*CAP
1 *1392:A 0.000465675
2 *1288:Q 0.000465675
3 *1132:A0 *1392:A 0.000426149
4 *1222:A *1392:A 0.000144773
5 *126:216 *1392:A 0
6 *246:45 *1392:A 2.79092e-05
*RES
1 *1288:Q *1392:A 38.1179 
*END

*D_NET *349 0.000986694
*CONN
*I *1389:A I *D sky130_fd_sc_hd__dlygate4sd3_1
*I *1289:Q O *D sky130_fd_sc_hd__dfrtp_1
*CAP
1 *1389:A 0.00041433
2 *1289:Q 0.00041433
3 *1216:A *1389:A 7.88091e-05
4 *1289:RESET_B *1389:A 7.92251e-05
*RES
1 *1289:Q *1389:A 25.725 
*END

*D_NET *350 0.00117052
*CONN
*I *1384:A I *D sky130_fd_sc_hd__dlygate4sd3_1
*I *1290:Q O *D sky130_fd_sc_hd__dfrtp_1
*CAP
1 *1384:A 0.000318005
2 *1290:Q 0.000318005
3 *1134:A1 *1384:A 0.000266931
4 *1134:S *1384:A 5.49544e-05
5 *1136:A0 *1384:A 3.05605e-05
6 *145:67 *1384:A 0.000141935
7 *243:112 *1384:A 4.01264e-05
*RES
1 *1290:Q *1384:A 24.9036 
*END

*D_NET *351 0.00195568
*CONN
*I *1400:A I *D sky130_fd_sc_hd__dlygate4sd3_1
*I *1128:A I *D sky130_fd_sc_hd__inv_2
*I *1312:Q O *D sky130_fd_sc_hd__dfrtp_1
*CAP
1 *1400:A 0.000164735
2 *1128:A 0.000590682
3 *1312:Q 0
4 *351:4 0.000755417
5 *1129:A2 *1128:A 9.55178e-05
6 *1312:RESET_B *1128:A 6.48098e-05
7 *1312:RESET_B *1400:A 0.000262883
8 *145:39 *1128:A 2.16315e-05
*RES
1 *1312:Q *351:4 9.3 
2 *351:4 *1128:A 26.2286 
3 *351:4 *1400:A 13.4429 
*END

*D_NET *352 0.00157256
*CONN
*I *1127:A I *D sky130_fd_sc_hd__inv_2
*I *1397:A I *D sky130_fd_sc_hd__dlygate4sd3_1
*I *1313:Q O *D sky130_fd_sc_hd__dfrtp_1
*CAP
1 *1127:A 9.65454e-05
2 *1397:A 0.000103869
3 *1313:Q 0.000223305
4 *352:6 0.00042372
5 *1129:C1 *1127:A 5.46383e-06
6 *1130:B1 *1397:A 5.7661e-06
7 *1131:A1 *1127:A 9.58181e-05
8 *1131:A1 *1397:A 7.35234e-06
9 *1131:A1 *352:6 0.000140088
10 *1131:B1 *352:6 6.26774e-06
11 *1131:B2 *1127:A 4.17702e-05
12 *1131:B2 *1397:A 0.000100236
13 *1131:B2 *352:6 0.000268559
14 *1202:S *352:6 2.4428e-05
15 *253:12 *352:6 2.93776e-05
*RES
1 *1313:Q *352:6 13.9429 
2 *352:6 *1397:A 20.3714 
3 *352:6 *1127:A 11.3893 
*END

*D_NET *353 0.00113234
*CONN
*I *1126:A I *D sky130_fd_sc_hd__inv_2
*I *1394:A I *D sky130_fd_sc_hd__dlygate4sd3_1
*I *1314:Q O *D sky130_fd_sc_hd__dfrtp_1
*CAP
1 *1126:A 0.000220465
2 *1394:A 1.64896e-05
3 *1314:Q 0.000222125
4 *353:8 0.00045908
5 *1129:A1 *353:8 0
6 *1203:A *1126:A 0
7 *1204:A2 *1394:A 2.89016e-05
8 *1313:D *1126:A 0
9 *1313:D *353:8 0
10 *1313:RESET_B *353:8 3.09892e-05
11 *140:14 *1126:A 0.00010096
12 *254:10 *1126:A 2.44318e-05
13 *254:12 *1126:A 0
14 *255:23 *1394:A 2.89016e-05
*RES
1 *1314:Q *353:8 17.8714 
2 *353:8 *1394:A 14.3357 
3 *353:8 *1126:A 17.8357 
*END

*D_NET *354 0.000347319
*CONN
*I *1110:A I *D sky130_fd_sc_hd__buf_6
*I *1287:Q O *D sky130_fd_sc_hd__dfrtp_1
*CAP
1 *1110:A 0.000134757
2 *1287:Q 0.000134757
3 *256:627 *1110:A 7.78044e-05
*RES
1 *1287:Q *1110:A 21.2071 
*END

*D_NET *355 0.0157346
*CONN
*I *1241:A1 I *D sky130_fd_sc_hd__mux2_1
*I *1262:A I *D sky130_fd_sc_hd__nand2_1
*I *1089:A1 I *D sky130_fd_sc_hd__a211o_1
*I *1263:A I *D sky130_fd_sc_hd__or2_1
*I *1082:A I *D sky130_fd_sc_hd__inv_2
*I *1093:B_N I *D sky130_fd_sc_hd__or2b_1
*I *1098:B I *D sky130_fd_sc_hd__xnor2_1
*I *1340:Q O *D sky130_fd_sc_hd__dfrtp_4
*CAP
1 *1241:A1 0
2 *1262:A 0.000357402
3 *1089:A1 0
4 *1263:A 0.000377988
5 *1082:A 4.17311e-05
6 *1093:B_N 3.7022e-05
7 *1098:B 0.000350413
8 *1340:Q 0.000590166
9 *355:78 0.000491603
10 *355:59 0.000621935
11 *355:48 0.000953328
12 *355:20 0.000624515
13 *355:18 0.00270104
14 *355:10 0.00225227
15 *1098:B *1097:A 8.22008e-05
16 *1098:B *1098:A 3.45899e-05
17 *355:10 *1081:A 8.06331e-05
18 *1088:A1 *355:48 3.75959e-05
19 *1089:A2 *1262:A 2.89016e-05
20 *1089:A2 *355:78 2.8266e-06
21 *1089:B1 *1263:A 0.000148514
22 *1089:B1 *355:48 2.47956e-05
23 *1089:B1 *355:78 0.000210681
24 *1089:C1 *1262:A 4.54415e-05
25 *1089:C1 *355:78 1.24368e-05
26 *1097:B *1098:B 0.000757033
27 *1097:B *355:20 0.000166852
28 *1100:A2 *1098:B 2.49168e-05
29 *1100:A2 *355:20 0.000116154
30 *1116:A1 *1263:A 3.50746e-05
31 *1116:B1 *355:48 7.74135e-05
32 *1120:A_N *1098:B 7.59202e-05
33 *1124:D1 *355:48 8.23597e-06
34 *1241:A0 *355:10 0.000272293
35 *1251:A1 *355:20 0.000233893
36 *1251:A1 *355:48 0.000379552
37 *1262:B *1262:A 3.99069e-05
38 *1263:B *1263:A 0.000143633
39 *1276:A1 *355:48 0.000167018
40 *1277:B *355:48 0.000287842
41 *1347:D *355:48 5.86821e-06
42 *1426:A *355:10 0
43 *1433:A *355:48 0
44 *30:58 *355:10 0
45 *99:31 *1262:A 8.59371e-05
46 *99:31 *355:78 5.50052e-05
47 *102:18 *1262:A 3.57366e-05
48 *102:28 *1082:A 5.46536e-05
49 *102:28 *355:59 0.000116003
50 *105:16 *1262:A 3.01245e-06
51 *108:27 *355:20 6.14702e-06
52 *111:14 *1098:B 6.07232e-05
53 *115:10 *1098:B 0.00021871
54 *120:18 *355:48 0.000523048
55 *129:52 *355:20 0.000305519
56 *129:52 *355:48 3.42401e-05
57 *224:6 *1262:A 2.11336e-05
58 *256:353 *355:10 0.000139774
59 *256:355 *355:10 5.05917e-05
60 *256:355 *355:18 1.23107e-05
61 *256:459 *355:48 1.21375e-05
62 *256:465 *355:18 0.000965602
63 *256:480 *355:18 0.000134682
64 *257:10 *355:10 0
*RES
1 *1340:Q *355:10 27.2286 
2 *355:10 *355:18 11.1948 
3 *355:18 *355:20 7.25893 
4 *355:20 *1098:B 26.0679 
5 *355:20 *1093:B_N 14.3357 
6 *355:18 *355:48 22.5625 
7 *355:48 *1082:A 10.2464 
8 *355:48 *355:59 6.67857 
9 *355:59 *1263:A 21.6393 
10 *355:59 *355:78 7.89286 
11 *355:78 *1089:A1 9.3 
12 *355:78 *1262:A 14.9964 
13 *355:10 *1241:A1 13.8 
*END

*D_NET *356 0.000202392
*CONN
*I *1083:A I *D sky130_fd_sc_hd__clkbuf_4
*I *1341:Q O *D sky130_fd_sc_hd__dfrtp_1
*CAP
1 *1083:A 9.62066e-05
2 *1341:Q 9.62066e-05
3 *99:8 *1083:A 9.97875e-06
*RES
1 *1341:Q *1083:A 19.975 
*END

*D_NET *357 0.000329859
*CONN
*I *1086:A I *D sky130_fd_sc_hd__clkbuf_4
*I *1342:Q O *D sky130_fd_sc_hd__dfrtp_1
*CAP
1 *1086:A 9.03121e-05
2 *1342:Q 9.03121e-05
3 *247:68 *1086:A 0.000149235
*RES
1 *1342:Q *1086:A 29.5464 
*END

*D_NET *358 0.00209555
*CONN
*I *1098:A I *D sky130_fd_sc_hd__xnor2_1
*I *1235:A0 I *D sky130_fd_sc_hd__mux2_1
*I *1330:Q O *D sky130_fd_sc_hd__dfrtp_1
*CAP
1 *1098:A 0.000251364
2 *1235:A0 0.000310416
3 *1330:Q 0.000170486
4 *358:6 0.000732266
5 *1098:A *1097:A 0.000340415
6 *1235:A0 *359:12 5.79582e-06
7 *1098:B *1098:A 3.45899e-05
8 *1330:RESET_B *1235:A0 0.000144268
9 *1330:RESET_B *358:6 2.85321e-05
10 *1373:A *1235:A0 7.74135e-05
*RES
1 *1330:Q *358:6 11.4786 
2 *358:6 *1235:A0 23.1393 
3 *358:6 *1098:A 24.1929 
*END

*D_NET *359 0.00404133
*CONN
*I *1097:A I *D sky130_fd_sc_hd__xnor2_1
*I *1237:A0 I *D sky130_fd_sc_hd__mux2_1
*I *1331:Q O *D sky130_fd_sc_hd__dfrtp_1
*CAP
1 *1097:A 0.000534784
2 *1237:A0 0.000594058
3 *1331:Q 0.000221562
4 *359:12 0.0013504
5 *1098:A *1097:A 0.000340415
6 *1098:B *1097:A 8.22008e-05
7 *1235:A0 *359:12 5.79582e-06
8 *1235:S *359:12 0.000230155
9 *1330:CLK *1237:A0 0.000171513
10 *1330:D *359:12 1.62621e-05
11 *1330:RESET_B *1097:A 0.000122652
12 *1330:RESET_B *1237:A0 0.000121749
13 *1364:A *1237:A0 9.84673e-05
14 *1373:A *359:12 0.000151314
*RES
1 *1331:Q *359:12 23.3357 
2 *359:12 *1237:A0 17.2286 
3 *359:12 *1097:A 28.2107 
*END

*D_NET *360 0.00193925
*CONN
*I *1096:A I *D sky130_fd_sc_hd__xnor2_1
*I *1239:A0 I *D sky130_fd_sc_hd__mux2_1
*I *1332:Q O *D sky130_fd_sc_hd__dfrtp_1
*CAP
1 *1096:A 0.000348309
2 *1239:A0 0.000553652
3 *1332:Q 0
4 *360:4 0.00090196
5 *1332:RESET_B *1239:A0 0.000135326
*RES
1 *1332:Q *360:4 9.3 
2 *360:4 *1239:A0 25.2107 
3 *360:4 *1096:A 14.8 
*END

*D_NET *361 0.00440786
*CONN
*I *1093:A I *D sky130_fd_sc_hd__or2b_1
*I *1092:A2 I *D sky130_fd_sc_hd__a221oi_2
*I *1229:A0 I *D sky130_fd_sc_hd__mux2_1
*I *1327:Q O *D sky130_fd_sc_hd__dfrtp_1
*CAP
1 *1093:A 0.000121222
2 *1092:A2 0
3 *1229:A0 0
4 *1327:Q 0.000576013
5 *361:25 0.00117508
6 *361:12 0.00162987
7 *361:25 *1092:B1 8.62077e-05
8 *1092:A1 *361:25 5.6647e-05
9 *1095:C1 *1093:A 2.2816e-05
10 *1095:C1 *361:25 0.000228429
11 *1327:RESET_B *361:12 0.000238859
12 *108:16 *361:25 1.28239e-05
13 *126:25 *361:25 5.33433e-05
14 *126:32 *361:25 1.74352e-05
15 *126:36 *361:12 3.87671e-05
16 *126:115 *361:25 0.000133027
17 *244:46 *361:12 1.73216e-05
18 *244:50 *361:12 0
*RES
1 *1327:Q *361:12 26.7286 
2 *361:12 *1229:A0 9.3 
3 *361:12 *361:25 15.0714 
4 *361:25 *1092:A2 9.3 
5 *361:25 *1093:A 11.6929 
*END

*D_NET *362 0.00397253
*CONN
*I *1095:A2 I *D sky130_fd_sc_hd__o2111a_1
*I *1092:B1 I *D sky130_fd_sc_hd__a221oi_2
*I *1231:A0 I *D sky130_fd_sc_hd__mux2_1
*I *1328:Q O *D sky130_fd_sc_hd__dfrtp_1
*CAP
1 *1095:A2 0
2 *1092:B1 0.000214096
3 *1231:A0 0.00057144
4 *1328:Q 0
5 *362:27 0.000857271
6 *362:4 0.00121462
7 *362:27 *1091:A_N 5.33005e-05
8 *1092:C1 *1092:B1 4.06646e-05
9 *1092:C1 *362:27 2.27416e-05
10 *1095:A1 *1092:B1 5.7234e-05
11 *1095:A1 *362:27 5.49489e-05
12 *1231:A1 *1231:A0 0
13 *1234:A *362:27 0.000274294
14 *1328:D *1231:A0 8.59394e-05
15 *1328:RESET_B *1231:A0 2.81497e-05
16 *102:38 *1092:B1 0
17 *102:38 *362:27 5.71472e-05
18 *102:49 *362:27 0.00027509
19 *126:25 *1231:A0 5.018e-05
20 *162:55 *1231:A0 0
21 *256:673 *1231:A0 2.92137e-05
22 *361:25 *1092:B1 8.62077e-05
*RES
1 *1328:Q *362:4 9.3 
2 *362:4 *1231:A0 27.8893 
3 *362:4 *362:27 12.6071 
4 *362:27 *1092:B1 21.8 
5 *362:27 *1095:A2 9.3 
*END

*D_NET *363 0.00199555
*CONN
*I *1233:A0 I *D sky130_fd_sc_hd__mux2_1
*I *1091:A_N I *D sky130_fd_sc_hd__and2b_1
*I *1094:B_N I *D sky130_fd_sc_hd__or2b_1
*I *1329:Q O *D sky130_fd_sc_hd__dfrtp_1
*CAP
1 *1233:A0 8.81189e-05
2 *1091:A_N 9.78398e-05
3 *1094:B_N 0.000163768
4 *1329:Q 3.04947e-05
5 *363:12 0.000353194
6 *363:8 0.0002102
7 *1233:A1 *1094:B_N 0.000269422
8 *1233:S *1233:A0 0.000117621
9 *1233:S *363:8 5.71472e-05
10 *1380:A *1091:A_N 6.98806e-05
11 *1380:A *1233:A0 2.59355e-05
12 *1380:A *363:8 1.74352e-05
13 *1380:A *363:12 3.80667e-05
14 *126:115 *363:12 0
15 *244:8 *1094:B_N 3.67257e-05
16 *244:10 *1091:A_N 8.21535e-05
17 *244:10 *363:12 0.000168777
18 *244:36 *1091:A_N 0.000115474
19 *362:27 *1091:A_N 5.33005e-05
*RES
1 *1329:Q *363:8 10.2643 
2 *363:8 *363:12 6.75 
3 *363:12 *1094:B_N 17.6214 
4 *363:12 *1091:A_N 16.8893 
5 *363:8 *1233:A0 11.4786 
*END

*D_NET *364 0.00364334
*CONN
*I *1108:A2 I *D sky130_fd_sc_hd__a2111o_2
*I *1105:A2 I *D sky130_fd_sc_hd__o21ai_1
*I *1223:A0 I *D sky130_fd_sc_hd__mux2_1
*I *1324:Q O *D sky130_fd_sc_hd__dfrtp_1
*CAP
1 *1108:A2 0
2 *1105:A2 0.000220179
3 *1223:A0 0.000352852
4 *1324:Q 6.51542e-05
5 *364:23 0.000727736
6 *364:8 0.000925564
7 *364:23 *365:8 2.59355e-05
8 *1092:A1 *1105:A2 1.81613e-05
9 *1108:B1 *1105:A2 0.000185367
10 *1108:C1 *364:23 4.87854e-05
11 *1223:A1 *1223:A0 5.65955e-05
12 *1223:S *1223:A0 9.99853e-05
13 *1225:A1 *364:23 0
14 *1226:A *364:8 0.000127589
15 *1226:A *364:23 0.000177268
16 *1325:RESET_B *364:23 2.81497e-05
17 *1352:A *364:8 9.59532e-06
18 *99:57 *1105:A2 0.000125724
19 *102:38 *1105:A2 0.000125724
20 *256:234 *364:23 0.000155879
21 *256:451 *364:23 0.000167099
*RES
1 *1324:Q *364:8 15.4429 
2 *364:8 *1223:A0 20.0857 
3 *364:8 *364:23 15.8036 
4 *364:23 *1105:A2 23.3714 
5 *364:23 *1108:A2 9.3 
*END

*D_NET *365 0.0018875
*CONN
*I *1106:B I *D sky130_fd_sc_hd__xor2_1
*I *1225:A0 I *D sky130_fd_sc_hd__mux2_1
*I *1325:Q O *D sky130_fd_sc_hd__dfrtp_1
*CAP
1 *1106:B 0.000189251
2 *1225:A0 0.000389601
3 *1325:Q 4.70928e-05
4 *365:8 0.000625945
5 *1225:A1 *1106:B 0
6 *1225:A1 *1225:A0 0
7 *99:57 *1225:A0 0
8 *239:18 *1225:A0 7.24849e-05
9 *239:50 *1106:B 0.000269882
10 *239:50 *1225:A0 9.30022e-05
11 *256:246 *1106:B 0.000174308
12 *364:23 *365:8 2.59355e-05
*RES
1 *1325:Q *365:8 14.3357 
2 *365:8 *1225:A0 19.8536 
3 *365:8 *1106:B 18.6214 
*END

*D_NET *366 0.000824259
*CONN
*I *1107:B I *D sky130_fd_sc_hd__xor2_1
*I *1378:A I *D sky130_fd_sc_hd__dlygate4sd3_1
*I *1326:Q O *D sky130_fd_sc_hd__dfrtp_1
*CAP
1 *1107:B 0.000107668
2 *1378:A 0.000259808
3 *1326:Q 0
4 *366:4 0.000367476
5 *1326:RESET_B *1378:A 4.85567e-05
6 *256:256 *1378:A 4.07505e-05
*RES
1 *1326:Q *366:4 9.3 
2 *366:4 *1378:A 22.1214 
3 *366:4 *1107:B 11.2821 
*END

*D_NET *367 0.00335388
*CONN
*I *1116:A2 I *D sky130_fd_sc_hd__a2111oi_1
*I *1101:A2 I *D sky130_fd_sc_hd__o21ai_1
*I *1104:A2 I *D sky130_fd_sc_hd__a2111o_1
*I *1217:A0 I *D sky130_fd_sc_hd__mux2_1
*I *1321:Q O *D sky130_fd_sc_hd__dfrtp_1
*CAP
1 *1116:A2 6.8973e-05
2 *1101:A2 0.0001455
3 *1104:A2 2.22847e-05
4 *1217:A0 0.000263666
5 *1321:Q 0
6 *367:32 0.000310444
7 *367:23 0.00041018
8 *367:4 0.00055559
9 *1217:A0 *1102:B 7.83563e-05
10 *1116:A1 *1116:A2 0.000100165
11 *1116:C1 *1116:A2 0.000171041
12 *1116:C1 *367:32 0.000183556
13 *1217:S *1217:A0 0.000100165
14 *1433:A *1101:A2 1.2294e-05
15 *98:98 *367:23 0.000141734
16 *98:98 *367:32 5.65955e-05
17 *98:105 *1116:A2 0.000269514
18 *98:105 *367:32 0.000297116
19 *99:43 *1217:A0 4.88537e-05
20 *120:18 *1101:A2 9.91224e-05
21 *246:20 *367:23 1.87331e-05
*RES
1 *1321:Q *367:4 9.3 
2 *367:4 *1217:A0 23.175 
3 *367:4 *367:23 5.07143 
4 *367:23 *1104:A2 9.72857 
5 *367:23 *367:32 3.41071 
6 *367:32 *1101:A2 20.8536 
7 *367:32 *1116:A2 12.3 
*END

*D_NET *368 0.00357266
*CONN
*I *1102:B I *D sky130_fd_sc_hd__xor2_1
*I *1219:A0 I *D sky130_fd_sc_hd__mux2_1
*I *1322:Q O *D sky130_fd_sc_hd__dfrtp_1
*CAP
1 *1102:B 0.000481544
2 *1219:A0 0.000748404
3 *1322:Q 0
4 *368:4 0.00122995
5 *1205:A0 *1102:B 1.32293e-05
6 *1205:A0 *1219:A0 8.85603e-05
7 *1217:A0 *1102:B 7.83563e-05
8 *1217:A1 *1102:B 0.00035577
9 *1217:S *1102:B 2.38501e-05
10 *1322:RESET_B *1219:A0 0.000136182
11 *126:203 *1102:B 0
12 *243:49 *1219:A0 0.0002317
13 *243:62 *1219:A0 0.000185118
14 *246:26 *1102:B 0
*RES
1 *1322:Q *368:4 9.3 
2 *368:4 *1219:A0 19.2821 
3 *368:4 *1102:B 27.5857 
*END

*D_NET *369 0.000947946
*CONN
*I *1103:B I *D sky130_fd_sc_hd__xor2_1
*I *1221:A0 I *D sky130_fd_sc_hd__mux2_1
*I *1323:Q O *D sky130_fd_sc_hd__dfrtp_1
*CAP
1 *1103:B 0
2 *1221:A0 0.000352272
3 *1323:Q 9.88242e-05
4 *369:12 0.000451096
5 *1087:A *369:12 4.57538e-05
6 *256:273 *369:12 0
*RES
1 *1323:Q *369:12 20.4786 
2 *369:12 *1221:A0 15.1929 
3 *369:12 *1103:B 9.3 
*END

*D_NET *370 0.00212605
*CONN
*I *1080:A I *D sky130_fd_sc_hd__inv_2
*I *1088:A2 I *D sky130_fd_sc_hd__a221o_1
*I *1211:A0 I *D sky130_fd_sc_hd__mux2_1
*I *1318:Q O *D sky130_fd_sc_hd__dfrtp_1
*CAP
1 *1080:A 0
2 *1088:A2 0.000152473
3 *1211:A0 0.000145215
4 *1318:Q 0.000203355
5 *370:25 0.000435416
6 *370:12 0.000631513
7 *1211:A1 *1211:A0 5.71472e-05
8 *1211:S *1211:A0 5.52302e-05
9 *1268:B1 *1211:A0 0.000217141
10 *1268:B1 *370:12 0.000228558
11 *1268:B1 *370:25 0
12 *126:233 *370:12 0
13 *256:315 *370:25 0
*RES
1 *1318:Q *370:12 22.425 
2 *370:12 *1211:A0 12.7107 
3 *370:12 *370:25 13.9821 
4 *370:25 *1088:A2 11.6839 
5 *370:25 *1080:A 9.3 
*END

*D_NET *371 0.00322534
*CONN
*I *1213:A0 I *D sky130_fd_sc_hd__mux2_1
*I *1084:B I *D sky130_fd_sc_hd__or2_1
*I *1085:B I *D sky130_fd_sc_hd__nand2_1
*I *1319:Q O *D sky130_fd_sc_hd__dfrtp_1
*CAP
1 *1213:A0 5.22696e-05
2 *1084:B 5.98523e-05
3 *1085:B 0.000193978
4 *1319:Q 0.000368136
5 *371:12 0.000668616
6 *371:10 0.000835192
7 *371:12 *1087:B 0
8 *1084:A *1084:B 1.33343e-05
9 *1084:A *1085:B 3.84349e-05
10 *1212:A *371:10 9.11048e-06
11 *1212:A *371:12 0.000147718
12 *1318:CLK *1213:A0 0.000228508
13 *1319:RESET_B *371:10 1.52071e-05
14 *1390:A *371:10 3.42301e-05
15 *99:33 *1085:B 0.000141734
16 *99:41 *1085:B 9.67754e-05
17 *119:20 *1085:B 0.000127246
18 *119:20 *371:12 2.27129e-05
19 *126:233 *1213:A0 7.68058e-05
20 *256:301 *371:10 9.54771e-05
*RES
1 *1319:Q *371:10 18.8536 
2 *371:10 *371:12 7.71429 
3 *371:12 *1085:B 18.3536 
4 *371:12 *1084:B 14.7464 
5 *371:10 *1213:A0 15.9786 
*END

*D_NET *372 0.00230464
*CONN
*I *1215:A0 I *D sky130_fd_sc_hd__mux2_1
*I *1087:B I *D sky130_fd_sc_hd__xor2_1
*I *1320:Q O *D sky130_fd_sc_hd__dfrtp_1
*CAP
1 *1215:A0 9.50401e-05
2 *1087:B 0.000326826
3 *1320:Q 0.000205994
4 *372:10 0.000627861
5 *1087:A *1087:B 1.76039e-05
6 *1134:A0 *1215:A0 0.000258396
7 *1318:CLK *1215:A0 9.84673e-05
8 *1318:CLK *372:10 4.58402e-05
9 *1319:RESET_B *372:10 7.4057e-06
10 *126:216 *1215:A0 9.75679e-05
11 *126:223 *1215:A0 0.000489677
12 *246:58 *372:10 1.29901e-05
13 *305:12 *372:10 2.09722e-05
14 *371:12 *1087:B 0
*RES
1 *1320:Q *372:10 16.8 
2 *372:10 *1087:B 19.0857 
3 *372:10 *1215:A0 19.2643 
*END

*D_NET *373 0.0026454
*CONN
*I *1112:B I *D sky130_fd_sc_hd__and3b_1
*I *1256:A I *D sky130_fd_sc_hd__nand2_2
*I *1114:A I *D sky130_fd_sc_hd__inv_2
*I *1279:A1 I *D sky130_fd_sc_hd__a21oi_1
*I *1343:Q O *D sky130_fd_sc_hd__dfrtp_1
*CAP
1 *1112:B 0
2 *1256:A 0.000294501
3 *1114:A 0.000302392
4 *1279:A1 0
5 *1343:Q 5.89978e-05
6 *373:25 0.00064082
7 *373:21 0.000154848
8 *373:10 0.000169919
9 *1112:A_N *373:21 0
10 *1113:A *373:21 9.74665e-05
11 *1125:B1 *1114:A 1.24368e-05
12 *1254:A1 *1114:A 0
13 *1254:A1 *373:10 0.000124869
14 *1279:A2 *373:10 1.00332e-05
15 *97:30 *373:21 9.93955e-05
16 *97:30 *373:25 9.35794e-06
17 *126:64 *1256:A 0.000230349
18 *127:34 *1114:A 4.06796e-05
19 *127:47 *1114:A 0.000132247
20 *127:60 *1114:A 7.0758e-05
21 *127:60 *1256:A 0.000144069
22 *216:18 *1114:A 5.22622e-05
*RES
1 *1343:Q *373:10 19.9429 
2 *373:10 *1279:A1 9.3 
3 *373:10 *373:21 2.92857 
4 *373:21 *373:25 5.03571 
5 *373:25 *1114:A 20.6393 
6 *373:25 *1256:A 20.175 
7 *373:21 *1112:B 9.3 
*END

*D_NET *374 0.00159898
*CONN
*I *1099:A I *D sky130_fd_sc_hd__and4_1
*I *1121:A1 I *D sky130_fd_sc_hd__a22oi_1
*I *1404:A I *D sky130_fd_sc_hd__dlygate4sd3_1
*I *1344:Q O *D sky130_fd_sc_hd__dfrtp_1
*CAP
1 *1099:A 2.23854e-05
2 *1121:A1 0.000208729
3 *1404:A 0.000129275
4 *1344:Q 4.19327e-05
5 *374:12 0.000557663
6 *374:6 0.000283977
7 *1121:A1 *375:12 4.71964e-05
8 *1099:B *374:12 3.18676e-05
9 *1121:A2 *1121:A1 0.000247057
10 *115:10 *1121:A1 0
11 *115:10 *374:12 0
12 *134:12 *1121:A1 0
13 *134:12 *374:12 0
14 *245:8 *1404:A 2.89016e-05
*RES
1 *1344:Q *374:6 9.83571 
2 *374:6 *374:12 7.80357 
3 *374:12 *1404:A 15.9786 
4 *374:12 *1121:A1 18.7821 
5 *374:6 *1099:A 9.72857 
*END

*D_NET *375 0.0036634
*CONN
*I *1405:A I *D sky130_fd_sc_hd__dlygate4sd3_1
*I *1121:B2 I *D sky130_fd_sc_hd__a22oi_1
*I *1095:B1 I *D sky130_fd_sc_hd__o2111a_1
*I *1345:Q O *D sky130_fd_sc_hd__dfrtp_1
*CAP
1 *1405:A 0.00029965
2 *1121:B2 0
3 *1095:B1 0.000593003
4 *1345:Q 0
5 *375:12 0.00115107
6 *375:4 0.000857719
7 *1095:A1 *1095:B1 3.75923e-05
8 *1120:A_N *1095:B1 1.38323e-05
9 *1120:B *1095:B1 8.64516e-06
10 *1121:A1 *375:12 4.71964e-05
11 *1121:A2 *375:12 3.65178e-05
12 *1248:A1 *1095:B1 5.33005e-05
13 *1269:A1 *1405:A 0
14 *1269:A1 *375:12 9.90367e-05
15 *1270:A *1405:A 3.69697e-05
16 *1270:A *375:12 2.27416e-05
17 *1270:B *375:12 1.40415e-05
18 *1271:B1 *1405:A 6.05161e-06
19 *1272:A *1405:A 6.62983e-05
20 *1272:B *1405:A 1.90111e-05
21 *102:49 *1095:B1 1.83053e-05
22 *111:10 *1095:B1 0.000119237
23 *115:10 *375:12 2.6433e-05
24 *115:27 *375:12 5.17338e-05
25 *115:40 *375:12 3.17148e-05
26 *135:6 *1095:B1 5.33005e-05
*RES
1 *1345:Q *375:4 9.3 
2 *375:4 *375:12 16.8214 
3 *375:12 *1095:B1 18.2464 
4 *375:12 *1121:B2 9.3 
5 *375:4 *1405:A 22.6571 
*END

*D_NET *376 0.00212154
*CONN
*I *1273:B1 I *D sky130_fd_sc_hd__o31a_1
*I *1123:B1 I *D sky130_fd_sc_hd__o21ai_1
*I *1105:B1 I *D sky130_fd_sc_hd__o21ai_1
*I *1346:Q O *D sky130_fd_sc_hd__dfrtp_1
*CAP
1 *1273:B1 0.000308529
2 *1123:B1 0.000149395
3 *1105:B1 4.77552e-05
4 *1346:Q 0
5 *376:10 0.00058793
6 *376:4 0.00069931
7 *1092:A1 *1105:B1 3.42426e-05
8 *1092:A1 *1123:B1 2.30285e-05
9 *1092:A1 *376:10 1.9774e-05
10 *1247:A *1123:B1 0
11 *1273:A1 *1273:B1 2.59355e-05
12 *1273:A2 *1273:B1 1.43713e-05
13 *1273:A3 *1273:B1 2.69219e-05
14 *1346:RESET_B *1273:B1 4.17433e-05
15 *1346:RESET_B *376:10 0.000136772
16 *98:18 *376:10 0
17 *116:16 *1273:B1 5.83485e-06
18 *126:48 *376:10 0
*RES
1 *1346:Q *376:4 9.3 
2 *376:4 *376:10 9.85714 
3 *376:10 *1105:B1 14.7464 
4 *376:10 *1123:B1 15.5679 
5 *376:4 *1273:B1 13.867 
*END

*D_NET *377 0.00327451
*CONN
*I *1117:A I *D sky130_fd_sc_hd__inv_2
*I *1101:B1 I *D sky130_fd_sc_hd__o21ai_1
*I *1276:B1 I *D sky130_fd_sc_hd__o31a_1
*I *1347:Q O *D sky130_fd_sc_hd__dfrtp_1
*CAP
1 *1117:A 0
2 *1101:B1 0.000418013
3 *1276:B1 0.000252998
4 *1347:Q 7.07319e-05
5 *377:25 0.000512588
6 *377:8 0.000418305
7 *1089:B1 *1101:B1 0.000209175
8 *1089:B1 *1276:B1 0.000132954
9 *1089:B1 *377:25 0
10 *1116:B1 *1101:B1 7.59183e-05
11 *1118:B1 *1276:B1 6.66939e-05
12 *1118:B1 *377:25 2.1527e-05
13 *1124:A2 *1276:B1 5.52238e-05
14 *1124:D1 *1276:B1 0.000221634
15 *1276:A2 *1276:B1 5.04841e-06
16 *1276:A3 *1276:B1 2.97456e-05
17 *97:30 *1276:B1 6.0159e-05
18 *98:72 *1101:B1 0.000353952
19 *120:37 *377:8 4.58517e-05
20 *124:38 *1276:B1 0.000123295
21 *126:64 *1101:B1 0.000186662
22 *137:37 *1276:B1 1.40306e-05
23 *139:27 *1101:B1 0
24 *139:27 *1276:B1 0
25 *139:27 *377:25 0
*RES
1 *1347:Q *377:8 14.7464 
2 *377:8 *1276:B1 20.3893 
3 *377:8 *377:25 6.14286 
4 *377:25 *1101:B1 28.8893 
5 *377:25 *1117:A 9.3 
*END

*D_NET *378 0.000447163
*CONN
*I *1081:A I *D sky130_fd_sc_hd__inv_2
*I *1348:Q O *D sky130_fd_sc_hd__dfrtp_1
*CAP
1 *1081:A 0.000142468
2 *1348:Q 0.000142468
3 *1426:A *1081:A 8.15939e-05
4 *355:10 *1081:A 8.06331e-05
*RES
1 *1348:Q *1081:A 30.4929 
*END
