*SPEF "ieee 1481-1999"
*DESIGN "top"
*DATE "11:11:11 Fri 11 11, 1111"
*VENDOR "OpenRCX"
*PROGRAM "Parallel Extraction"
*VERSION "1.0"
*DESIGN_FLOW "NAME_SCOPE LOCAL" "PIN_CAP NONE"
*DIVIDER /
*DELIMITER :
*BUS_DELIMITER []
*T_UNIT 1 NS
*C_UNIT 1 PF
*R_UNIT 1 OHM
*L_UNIT 1 HENRY

*NAME_MAP
*3 clk
*4 i_valid
*5 i_value0[0]
*6 i_value0[1]
*7 i_value0[2]
*8 i_value1[0]
*9 i_value1[1]
*10 i_value1[2]
*11 i_value2[0]
*12 i_value2[1]
*13 i_value2[2]
*14 i_value3[0]
*15 i_value3[1]
*16 i_value3[2]
*17 i_value4[0]
*18 i_value4[1]
*19 i_value4[2]
*20 o_bucket[0]
*21 o_bucket[1]
*22 o_bucket[2]
*23 o_index[0]
*24 o_index[1]
*25 o_index[2]
*26 o_valid
*27 rst_n
*28 _000_
*29 _001_
*30 _002_
*31 _003_
*32 _004_
*33 _005_
*34 _006_
*35 _007_
*36 _008_
*37 _009_
*38 _010_
*39 _011_
*40 _012_
*41 _013_
*42 _014_
*43 _015_
*44 _016_
*45 _017_
*46 _018_
*47 _019_
*48 _020_
*49 _021_
*50 _022_
*51 _023_
*52 _024_
*53 _025_
*54 _026_
*55 _027_
*56 _028_
*57 _029_
*58 _030_
*59 _031_
*60 _032_
*61 _033_
*62 _034_
*63 _035_
*64 _036_
*65 _037_
*66 _038_
*67 _039_
*68 _040_
*69 _041_
*70 _042_
*71 _043_
*72 _044_
*73 _045_
*74 _046_
*75 _047_
*76 _048_
*77 _049_
*78 _050_
*79 _051_
*80 _052_
*81 _053_
*82 _054_
*83 _055_
*84 _056_
*85 _057_
*86 _058_
*87 _059_
*88 _060_
*89 _061_
*90 _062_
*91 _063_
*92 _064_
*93 _065_
*94 _066_
*95 _067_
*96 _068_
*97 _069_
*98 _070_
*99 _071_
*100 _072_
*101 _073_
*102 _074_
*103 _075_
*104 _076_
*105 _077_
*106 _078_
*107 _079_
*108 _080_
*109 _081_
*110 _082_
*111 _083_
*112 _084_
*113 _085_
*114 _086_
*115 _087_
*116 _088_
*117 _089_
*118 _090_
*119 _091_
*120 _092_
*121 _093_
*122 _094_
*123 _095_
*124 _096_
*125 _097_
*126 _098_
*127 _099_
*128 _100_
*129 _101_
*130 _102_
*131 _103_
*132 _104_
*133 _105_
*134 _106_
*135 _107_
*136 _108_
*137 _109_
*138 _110_
*139 _111_
*140 _112_
*141 _113_
*142 _114_
*143 _115_
*144 _116_
*145 _117_
*146 _118_
*147 _119_
*148 _120_
*149 _121_
*150 _122_
*151 _123_
*152 _124_
*153 _125_
*154 _126_
*155 _127_
*156 _128_
*157 _129_
*158 _130_
*159 _131_
*160 _132_
*161 _133_
*162 _134_
*163 _135_
*164 _136_
*165 _137_
*166 _138_
*167 _139_
*168 _140_
*169 _141_
*170 _142_
*171 _143_
*172 _144_
*173 _145_
*174 _146_
*175 _147_
*176 _148_
*177 _149_
*178 _150_
*179 _151_
*180 _152_
*181 _153_
*182 _154_
*183 _155_
*184 _156_
*185 _157_
*186 _158_
*187 _159_
*188 _160_
*189 _161_
*190 _162_
*191 _163_
*192 _164_
*193 _165_
*194 _166_
*195 _167_
*196 _168_
*197 _169_
*198 _170_
*199 _171_
*200 _172_
*201 _173_
*202 _174_
*203 _175_
*204 _176_
*205 _177_
*206 _178_
*207 _179_
*208 _180_
*209 _181_
*210 _182_
*211 _183_
*212 _184_
*213 _185_
*214 _186_
*215 _187_
*216 _188_
*217 _189_
*218 _190_
*219 _191_
*220 _192_
*221 _193_
*222 _194_
*223 _195_
*224 _196_
*225 _197_
*226 _198_
*227 _199_
*228 _200_
*229 _201_
*230 _202_
*231 _203_
*232 _204_
*233 _205_
*234 _206_
*235 _207_
*236 _208_
*237 _209_
*238 _210_
*239 clknet_0_clk
*240 clknet_3_0__leaf_clk
*241 clknet_3_1__leaf_clk
*242 clknet_3_2__leaf_clk
*243 clknet_3_3__leaf_clk
*244 clknet_3_4__leaf_clk
*245 clknet_3_5__leaf_clk
*246 clknet_3_6__leaf_clk
*247 clknet_3_7__leaf_clk
*248 net1
*249 net10
*250 net11
*251 net12
*252 net13
*253 net14
*254 net15
*255 net16
*256 net17
*257 net18
*258 net19
*259 net2
*260 net20
*261 net21
*262 net22
*263 net23
*264 net24
*265 net25
*266 net26
*267 net27
*268 net28
*269 net29
*270 net3
*271 net30
*272 net31
*273 net32
*274 net33
*275 net34
*276 net35
*277 net36
*278 net37
*279 net38
*280 net39
*281 net4
*282 net40
*283 net41
*284 net42
*285 net43
*286 net44
*287 net45
*288 net46
*289 net47
*290 net48
*291 net49
*292 net5
*293 net50
*294 net51
*295 net52
*296 net53
*297 net54
*298 net55
*299 net56
*300 net57
*301 net58
*302 net59
*303 net6
*304 net60
*305 net61
*306 net62
*307 net63
*308 net64
*309 net65
*310 net66
*311 net67
*312 net68
*313 net69
*314 net7
*315 net70
*316 net71
*317 net72
*318 net73
*319 net8
*320 net9
*321 u_am0\.b_i\[0\]
*322 u_am0\.b_i\[1\]
*323 u_am0\.b_i\[2\]
*324 u_am0\.i_index\[0\]
*325 u_am0\.i_index\[1\]
*326 u_am0\.i_index\[2\]
*327 u_am0\.max\[0\]
*328 u_am0\.max\[1\]
*329 u_am0\.max\[2\]
*330 u_am1\.b_i\[0\]
*331 u_am1\.b_i\[1\]
*332 u_am1\.b_i\[2\]
*333 u_am1\.max\[0\]
*334 u_am1\.max\[1\]
*335 u_am1\.max\[2\]
*336 u_am2\.b_i\[0\]
*337 u_am2\.b_i\[1\]
*338 u_am2\.b_i\[2\]
*339 u_am2\.max\[0\]
*340 u_am2\.max\[1\]
*341 u_am2\.max\[2\]
*342 u_am3\.b_i\[0\]
*343 u_am3\.b_i\[1\]
*344 u_am3\.b_i\[2\]
*345 u_am3\.max\[0\]
*346 u_am3\.max\[1\]
*347 u_am3\.max\[2\]
*348 u_am4\.b_i\[0\]
*349 u_am4\.b_i\[1\]
*350 u_am4\.b_i\[2\]
*351 u_am4\.max\[0\]
*352 u_am4\.max\[1\]
*353 u_am4\.max\[2\]
*354 u_control\.o_start_sort
*355 u_sort\.bucket_counter\[0\]
*356 u_sort\.bucket_counter\[1\]
*357 u_sort\.bucket_counter\[2\]
*358 u_sort\.bucket_reg\[0\]\[0\]
*359 u_sort\.bucket_reg\[0\]\[1\]
*360 u_sort\.bucket_reg\[0\]\[2\]
*361 u_sort\.bucket_reg\[1\]\[0\]
*362 u_sort\.bucket_reg\[1\]\[1\]
*363 u_sort\.bucket_reg\[1\]\[2\]
*364 u_sort\.bucket_reg\[2\]\[0\]
*365 u_sort\.bucket_reg\[2\]\[1\]
*366 u_sort\.bucket_reg\[2\]\[2\]
*367 u_sort\.bucket_reg\[3\]\[0\]
*368 u_sort\.bucket_reg\[3\]\[1\]
*369 u_sort\.bucket_reg\[3\]\[2\]
*370 u_sort\.bucket_reg\[4\]\[0\]
*371 u_sort\.bucket_reg\[4\]\[1\]
*372 u_sort\.bucket_reg\[4\]\[2\]
*373 u_sort\.busy
*374 u_sort\.valid_reg\[0\]
*375 u_sort\.valid_reg\[1\]
*376 u_sort\.valid_reg\[2\]
*377 u_sort\.valid_reg\[3\]
*378 u_sort\.valid_reg\[4\]
*379 FILLER_0_0_109
*380 FILLER_0_0_113
*381 FILLER_0_0_125
*382 FILLER_0_0_137
*383 FILLER_0_0_141
*384 FILLER_0_0_15
*385 FILLER_0_0_153
*386 FILLER_0_0_165
*387 FILLER_0_0_169
*388 FILLER_0_0_181
*389 FILLER_0_0_189
*390 FILLER_0_0_27
*391 FILLER_0_0_29
*392 FILLER_0_0_3
*393 FILLER_0_0_41
*394 FILLER_0_0_53
*395 FILLER_0_0_57
*396 FILLER_0_0_69
*397 FILLER_0_0_81
*398 FILLER_0_0_85
*399 FILLER_0_0_97
*400 FILLER_0_10_127
*401 FILLER_0_10_139
*402 FILLER_0_10_141
*403 FILLER_0_10_147
*404 FILLER_0_10_175
*405 FILLER_0_10_26
*406 FILLER_0_10_29
*407 FILLER_0_10_85
*408 FILLER_0_10_89
*409 FILLER_0_11_101
*410 FILLER_0_11_110
*411 FILLER_0_11_119
*412 FILLER_0_11_13
*413 FILLER_0_11_130
*414 FILLER_0_11_134
*415 FILLER_0_11_166
*416 FILLER_0_11_169
*417 FILLER_0_11_177
*418 FILLER_0_11_3
*419 FILLER_0_11_36
*420 FILLER_0_11_48
*421 FILLER_0_11_53
*422 FILLER_0_11_74
*423 FILLER_0_11_9
*424 FILLER_0_11_95
*425 FILLER_0_12_101
*426 FILLER_0_12_113
*427 FILLER_0_12_137
*428 FILLER_0_12_14
*429 FILLER_0_12_147
*430 FILLER_0_12_159
*431 FILLER_0_12_171
*432 FILLER_0_12_175
*433 FILLER_0_12_185
*434 FILLER_0_12_27
*435 FILLER_0_12_39
*436 FILLER_0_12_6
*437 FILLER_0_12_65
*438 FILLER_0_12_85
*439 FILLER_0_12_91
*440 FILLER_0_13_10
*441 FILLER_0_13_111
*442 FILLER_0_13_113
*443 FILLER_0_13_121
*444 FILLER_0_13_127
*445 FILLER_0_13_133
*446 FILLER_0_13_138
*447 FILLER_0_13_150
*448 FILLER_0_13_158
*449 FILLER_0_13_162
*450 FILLER_0_13_169
*451 FILLER_0_13_21
*452 FILLER_0_13_51
*453 FILLER_0_13_55
*454 FILLER_0_13_57
*455 FILLER_0_13_6
*456 FILLER_0_13_63
*457 FILLER_0_13_73
*458 FILLER_0_13_81
*459 FILLER_0_14_107
*460 FILLER_0_14_118
*461 FILLER_0_14_130
*462 FILLER_0_14_141
*463 FILLER_0_14_153
*464 FILLER_0_14_161
*465 FILLER_0_14_173
*466 FILLER_0_14_185
*467 FILLER_0_14_193
*468 FILLER_0_14_26
*469 FILLER_0_14_29
*470 FILLER_0_14_47
*471 FILLER_0_14_55
*472 FILLER_0_14_77
*473 FILLER_0_14_83
*474 FILLER_0_14_85
*475 FILLER_0_14_91
*476 FILLER_0_14_95
*477 FILLER_0_15_102
*478 FILLER_0_15_108
*479 FILLER_0_15_147
*480 FILLER_0_15_15
*481 FILLER_0_15_169
*482 FILLER_0_15_181
*483 FILLER_0_15_19
*484 FILLER_0_15_191
*485 FILLER_0_15_195
*486 FILLER_0_15_28
*487 FILLER_0_15_3
*488 FILLER_0_15_40
*489 FILLER_0_15_68
*490 FILLER_0_15_72
*491 FILLER_0_16_110
*492 FILLER_0_16_118
*493 FILLER_0_16_123
*494 FILLER_0_16_139
*495 FILLER_0_16_151
*496 FILLER_0_16_170
*497 FILLER_0_16_21
*498 FILLER_0_16_27
*499 FILLER_0_16_29
*500 FILLER_0_16_37
*501 FILLER_0_16_6
*502 FILLER_0_16_68
*503 FILLER_0_16_82
*504 FILLER_0_16_85
*505 FILLER_0_16_89
*506 FILLER_0_17_10
*507 FILLER_0_17_105
*508 FILLER_0_17_111
*509 FILLER_0_17_123
*510 FILLER_0_17_162
*511 FILLER_0_17_178
*512 FILLER_0_17_184
*513 FILLER_0_17_43
*514 FILLER_0_17_51
*515 FILLER_0_17_6
*516 FILLER_0_17_77
*517 FILLER_0_17_81
*518 FILLER_0_18_112
*519 FILLER_0_18_124
*520 FILLER_0_18_138
*521 FILLER_0_18_141
*522 FILLER_0_18_145
*523 FILLER_0_18_153
*524 FILLER_0_18_160
*525 FILLER_0_18_168
*526 FILLER_0_18_192
*527 FILLER_0_18_23
*528 FILLER_0_18_38
*529 FILLER_0_18_44
*530 FILLER_0_18_82
*531 FILLER_0_18_85
*532 FILLER_0_18_97
*533 FILLER_0_19_113
*534 FILLER_0_19_121
*535 FILLER_0_19_127
*536 FILLER_0_19_149
*537 FILLER_0_19_157
*538 FILLER_0_19_165
*539 FILLER_0_19_169
*540 FILLER_0_19_181
*541 FILLER_0_19_3
*542 FILLER_0_19_45
*543 FILLER_0_19_53
*544 FILLER_0_19_66
*545 FILLER_0_19_75
*546 FILLER_0_19_79
*547 FILLER_0_19_83
*548 FILLER_0_1_105
*549 FILLER_0_1_111
*550 FILLER_0_1_113
*551 FILLER_0_1_125
*552 FILLER_0_1_137
*553 FILLER_0_1_149
*554 FILLER_0_1_15
*555 FILLER_0_1_161
*556 FILLER_0_1_167
*557 FILLER_0_1_169
*558 FILLER_0_1_181
*559 FILLER_0_1_193
*560 FILLER_0_1_27
*561 FILLER_0_1_3
*562 FILLER_0_1_39
*563 FILLER_0_1_51
*564 FILLER_0_1_55
*565 FILLER_0_1_57
*566 FILLER_0_1_69
*567 FILLER_0_1_81
*568 FILLER_0_1_93
*569 FILLER_0_20_100
*570 FILLER_0_20_121
*571 FILLER_0_20_133
*572 FILLER_0_20_139
*573 FILLER_0_20_141
*574 FILLER_0_20_153
*575 FILLER_0_20_165
*576 FILLER_0_20_18
*577 FILLER_0_20_192
*578 FILLER_0_20_27
*579 FILLER_0_20_39
*580 FILLER_0_20_47
*581 FILLER_0_20_6
*582 FILLER_0_20_73
*583 FILLER_0_20_85
*584 FILLER_0_20_91
*585 FILLER_0_21_10
*586 FILLER_0_21_113
*587 FILLER_0_21_121
*588 FILLER_0_21_139
*589 FILLER_0_21_147
*590 FILLER_0_21_158
*591 FILLER_0_21_16
*592 FILLER_0_21_166
*593 FILLER_0_21_169
*594 FILLER_0_21_181
*595 FILLER_0_21_193
*596 FILLER_0_21_25
*597 FILLER_0_21_46
*598 FILLER_0_21_54
*599 FILLER_0_21_57
*600 FILLER_0_21_6
*601 FILLER_0_21_62
*602 FILLER_0_21_74
*603 FILLER_0_21_86
*604 FILLER_0_22_108
*605 FILLER_0_22_116
*606 FILLER_0_22_128
*607 FILLER_0_22_133
*608 FILLER_0_22_139
*609 FILLER_0_22_141
*610 FILLER_0_22_190
*611 FILLER_0_22_23
*612 FILLER_0_22_27
*613 FILLER_0_22_29
*614 FILLER_0_22_50
*615 FILLER_0_22_54
*616 FILLER_0_22_75
*617 FILLER_0_22_81
*618 FILLER_0_22_85
*619 FILLER_0_22_97
*620 FILLER_0_23_109
*621 FILLER_0_23_113
*622 FILLER_0_23_125
*623 FILLER_0_23_129
*624 FILLER_0_23_133
*625 FILLER_0_23_144
*626 FILLER_0_23_163
*627 FILLER_0_23_167
*628 FILLER_0_23_169
*629 FILLER_0_23_27
*630 FILLER_0_23_3
*631 FILLER_0_23_54
*632 FILLER_0_23_66
*633 FILLER_0_23_9
*634 FILLER_0_23_97
*635 FILLER_0_24_104
*636 FILLER_0_24_110
*637 FILLER_0_24_118
*638 FILLER_0_24_126
*639 FILLER_0_24_144
*640 FILLER_0_24_176
*641 FILLER_0_24_191
*642 FILLER_0_24_195
*643 FILLER_0_24_25
*644 FILLER_0_24_29
*645 FILLER_0_24_41
*646 FILLER_0_24_53
*647 FILLER_0_24_6
*648 FILLER_0_24_71
*649 FILLER_0_24_83
*650 FILLER_0_24_85
*651 FILLER_0_24_93
*652 FILLER_0_25_113
*653 FILLER_0_25_122
*654 FILLER_0_25_134
*655 FILLER_0_25_146
*656 FILLER_0_25_158
*657 FILLER_0_25_166
*658 FILLER_0_25_169
*659 FILLER_0_25_186
*660 FILLER_0_25_19
*661 FILLER_0_25_40
*662 FILLER_0_25_52
*663 FILLER_0_25_6
*664 FILLER_0_25_77
*665 FILLER_0_25_83
*666 FILLER_0_26_107
*667 FILLER_0_26_123
*668 FILLER_0_26_141
*669 FILLER_0_26_153
*670 FILLER_0_26_165
*671 FILLER_0_26_23
*672 FILLER_0_26_27
*673 FILLER_0_26_49
*674 FILLER_0_26_61
*675 FILLER_0_26_82
*676 FILLER_0_26_88
*677 FILLER_0_27_10
*678 FILLER_0_27_108
*679 FILLER_0_27_113
*680 FILLER_0_27_125
*681 FILLER_0_27_149
*682 FILLER_0_27_161
*683 FILLER_0_27_167
*684 FILLER_0_27_169
*685 FILLER_0_27_18
*686 FILLER_0_27_181
*687 FILLER_0_27_187
*688 FILLER_0_27_27
*689 FILLER_0_27_3
*690 FILLER_0_27_35
*691 FILLER_0_27_39
*692 FILLER_0_27_48
*693 FILLER_0_27_57
*694 FILLER_0_27_68
*695 FILLER_0_27_95
*696 FILLER_0_28_134
*697 FILLER_0_28_141
*698 FILLER_0_28_153
*699 FILLER_0_28_165
*700 FILLER_0_28_173
*701 FILLER_0_28_18
*702 FILLER_0_28_26
*703 FILLER_0_28_29
*704 FILLER_0_28_35
*705 FILLER_0_28_45
*706 FILLER_0_28_6
*707 FILLER_0_28_73
*708 FILLER_0_28_85
*709 FILLER_0_29_111
*710 FILLER_0_29_129
*711 FILLER_0_29_141
*712 FILLER_0_29_153
*713 FILLER_0_29_165
*714 FILLER_0_29_169
*715 FILLER_0_29_181
*716 FILLER_0_29_189
*717 FILLER_0_29_23
*718 FILLER_0_29_32
*719 FILLER_0_29_68
*720 FILLER_0_29_76
*721 FILLER_0_29_98
*722 FILLER_0_2_109
*723 FILLER_0_2_121
*724 FILLER_0_2_133
*725 FILLER_0_2_139
*726 FILLER_0_2_141
*727 FILLER_0_2_153
*728 FILLER_0_2_165
*729 FILLER_0_2_177
*730 FILLER_0_2_189
*731 FILLER_0_2_19
*732 FILLER_0_2_195
*733 FILLER_0_2_27
*734 FILLER_0_2_29
*735 FILLER_0_2_41
*736 FILLER_0_2_45
*737 FILLER_0_2_69
*738 FILLER_0_2_81
*739 FILLER_0_2_85
*740 FILLER_0_2_97
*741 FILLER_0_30_109
*742 FILLER_0_30_115
*743 FILLER_0_30_119
*744 FILLER_0_30_131
*745 FILLER_0_30_139
*746 FILLER_0_30_141
*747 FILLER_0_30_153
*748 FILLER_0_30_165
*749 FILLER_0_30_177
*750 FILLER_0_30_189
*751 FILLER_0_30_195
*752 FILLER_0_30_44
*753 FILLER_0_30_56
*754 FILLER_0_30_6
*755 FILLER_0_30_68
*756 FILLER_0_30_80
*757 FILLER_0_30_85
*758 FILLER_0_30_97
*759 FILLER_0_31_105
*760 FILLER_0_31_111
*761 FILLER_0_31_113
*762 FILLER_0_31_125
*763 FILLER_0_31_13
*764 FILLER_0_31_137
*765 FILLER_0_31_149
*766 FILLER_0_31_161
*767 FILLER_0_31_167
*768 FILLER_0_31_169
*769 FILLER_0_31_181
*770 FILLER_0_31_193
*771 FILLER_0_31_3
*772 FILLER_0_31_46
*773 FILLER_0_31_54
*774 FILLER_0_31_57
*775 FILLER_0_31_69
*776 FILLER_0_31_81
*777 FILLER_0_31_93
*778 FILLER_0_32_109
*779 FILLER_0_32_113
*780 FILLER_0_32_125
*781 FILLER_0_32_137
*782 FILLER_0_32_141
*783 FILLER_0_32_15
*784 FILLER_0_32_153
*785 FILLER_0_32_165
*786 FILLER_0_32_169
*787 FILLER_0_32_181
*788 FILLER_0_32_189
*789 FILLER_0_32_22
*790 FILLER_0_32_29
*791 FILLER_0_32_41
*792 FILLER_0_32_53
*793 FILLER_0_32_57
*794 FILLER_0_32_69
*795 FILLER_0_32_81
*796 FILLER_0_32_85
*797 FILLER_0_32_9
*798 FILLER_0_32_97
*799 FILLER_0_3_102
*800 FILLER_0_3_110
*801 FILLER_0_3_121
*802 FILLER_0_3_133
*803 FILLER_0_3_145
*804 FILLER_0_3_157
*805 FILLER_0_3_165
*806 FILLER_0_3_169
*807 FILLER_0_3_181
*808 FILLER_0_3_193
*809 FILLER_0_3_23
*810 FILLER_0_3_35
*811 FILLER_0_3_47
*812 FILLER_0_3_55
*813 FILLER_0_3_57
*814 FILLER_0_3_61
*815 FILLER_0_4_121
*816 FILLER_0_4_133
*817 FILLER_0_4_139
*818 FILLER_0_4_141
*819 FILLER_0_4_153
*820 FILLER_0_4_165
*821 FILLER_0_4_177
*822 FILLER_0_4_189
*823 FILLER_0_4_195
*824 FILLER_0_4_20
*825 FILLER_0_4_29
*826 FILLER_0_4_3
*827 FILLER_0_4_37
*828 FILLER_0_4_46
*829 FILLER_0_4_58
*830 FILLER_0_4_66
*831 FILLER_0_4_81
*832 FILLER_0_4_85
*833 FILLER_0_4_97
*834 FILLER_0_5_10
*835 FILLER_0_5_111
*836 FILLER_0_5_113
*837 FILLER_0_5_119
*838 FILLER_0_5_140
*839 FILLER_0_5_152
*840 FILLER_0_5_164
*841 FILLER_0_5_169
*842 FILLER_0_5_181
*843 FILLER_0_5_189
*844 FILLER_0_5_40
*845 FILLER_0_5_49
*846 FILLER_0_5_55
*847 FILLER_0_5_57
*848 FILLER_0_5_6
*849 FILLER_0_5_69
*850 FILLER_0_5_89
*851 FILLER_0_6_109
*852 FILLER_0_6_121
*853 FILLER_0_6_133
*854 FILLER_0_6_139
*855 FILLER_0_6_141
*856 FILLER_0_6_153
*857 FILLER_0_6_165
*858 FILLER_0_6_177
*859 FILLER_0_6_189
*860 FILLER_0_6_195
*861 FILLER_0_6_22
*862 FILLER_0_6_27
*863 FILLER_0_6_6
*864 FILLER_0_6_69
*865 FILLER_0_6_82
*866 FILLER_0_6_85
*867 FILLER_0_6_97
*868 FILLER_0_7_10
*869 FILLER_0_7_106
*870 FILLER_0_7_113
*871 FILLER_0_7_125
*872 FILLER_0_7_131
*873 FILLER_0_7_143
*874 FILLER_0_7_155
*875 FILLER_0_7_167
*876 FILLER_0_7_169
*877 FILLER_0_7_181
*878 FILLER_0_7_193
*879 FILLER_0_7_27
*880 FILLER_0_7_39
*881 FILLER_0_7_48
*882 FILLER_0_7_57
*883 FILLER_0_7_6
*884 FILLER_0_7_63
*885 FILLER_0_7_95
*886 FILLER_0_8_138
*887 FILLER_0_8_168
*888 FILLER_0_8_192
*889 FILLER_0_8_26
*890 FILLER_0_8_29
*891 FILLER_0_8_68
*892 FILLER_0_8_80
*893 FILLER_0_9_122
*894 FILLER_0_9_128
*895 FILLER_0_9_157
*896 FILLER_0_9_165
*897 FILLER_0_9_169
*898 FILLER_0_9_3
*899 FILLER_0_9_54
*900 FILLER_0_9_57
*901 FILLER_0_9_65
*902 FILLER_0_9_7
*903 FILLER_0_9_85
*904 FILLER_0_9_91
*905 PHY_0
*906 PHY_1
*907 PHY_10
*908 PHY_11
*909 PHY_12
*910 PHY_13
*911 PHY_14
*912 PHY_15
*913 PHY_16
*914 PHY_17
*915 PHY_18
*916 PHY_19
*917 PHY_2
*918 PHY_20
*919 PHY_21
*920 PHY_22
*921 PHY_23
*922 PHY_24
*923 PHY_25
*924 PHY_26
*925 PHY_27
*926 PHY_28
*927 PHY_29
*928 PHY_3
*929 PHY_30
*930 PHY_31
*931 PHY_32
*932 PHY_33
*933 PHY_34
*934 PHY_35
*935 PHY_36
*936 PHY_37
*937 PHY_38
*938 PHY_39
*939 PHY_4
*940 PHY_40
*941 PHY_41
*942 PHY_42
*943 PHY_43
*944 PHY_44
*945 PHY_45
*946 PHY_46
*947 PHY_47
*948 PHY_48
*949 PHY_49
*950 PHY_5
*951 PHY_50
*952 PHY_51
*953 PHY_52
*954 PHY_53
*955 PHY_54
*956 PHY_55
*957 PHY_56
*958 PHY_57
*959 PHY_58
*960 PHY_59
*961 PHY_6
*962 PHY_60
*963 PHY_61
*964 PHY_62
*965 PHY_63
*966 PHY_64
*967 PHY_65
*968 PHY_7
*969 PHY_8
*970 PHY_9
*971 TAP_100
*972 TAP_101
*973 TAP_102
*974 TAP_103
*975 TAP_104
*976 TAP_105
*977 TAP_106
*978 TAP_107
*979 TAP_108
*980 TAP_109
*981 TAP_110
*982 TAP_111
*983 TAP_112
*984 TAP_113
*985 TAP_114
*986 TAP_115
*987 TAP_116
*988 TAP_117
*989 TAP_118
*990 TAP_119
*991 TAP_120
*992 TAP_121
*993 TAP_122
*994 TAP_123
*995 TAP_124
*996 TAP_125
*997 TAP_126
*998 TAP_127
*999 TAP_128
*1000 TAP_129
*1001 TAP_130
*1002 TAP_131
*1003 TAP_132
*1004 TAP_133
*1005 TAP_134
*1006 TAP_135
*1007 TAP_136
*1008 TAP_137
*1009 TAP_138
*1010 TAP_139
*1011 TAP_140
*1012 TAP_141
*1013 TAP_142
*1014 TAP_143
*1015 TAP_144
*1016 TAP_145
*1017 TAP_146
*1018 TAP_147
*1019 TAP_148
*1020 TAP_149
*1021 TAP_150
*1022 TAP_151
*1023 TAP_152
*1024 TAP_153
*1025 TAP_154
*1026 TAP_155
*1027 TAP_156
*1028 TAP_157
*1029 TAP_158
*1030 TAP_159
*1031 TAP_160
*1032 TAP_161
*1033 TAP_162
*1034 TAP_163
*1035 TAP_164
*1036 TAP_165
*1037 TAP_166
*1038 TAP_167
*1039 TAP_168
*1040 TAP_169
*1041 TAP_170
*1042 TAP_66
*1043 TAP_67
*1044 TAP_68
*1045 TAP_69
*1046 TAP_70
*1047 TAP_71
*1048 TAP_72
*1049 TAP_73
*1050 TAP_74
*1051 TAP_75
*1052 TAP_76
*1053 TAP_77
*1054 TAP_78
*1055 TAP_79
*1056 TAP_80
*1057 TAP_81
*1058 TAP_82
*1059 TAP_83
*1060 TAP_84
*1061 TAP_85
*1062 TAP_86
*1063 TAP_87
*1064 TAP_88
*1065 TAP_89
*1066 TAP_90
*1067 TAP_91
*1068 TAP_92
*1069 TAP_93
*1070 TAP_94
*1071 TAP_95
*1072 TAP_96
*1073 TAP_97
*1074 TAP_98
*1075 TAP_99
*1076 _211_
*1077 _212_
*1078 _213_
*1079 _214_
*1080 _215_
*1081 _216_
*1082 _217_
*1083 _218_
*1084 _219_
*1085 _220_
*1086 _221_
*1087 _222_
*1088 _223_
*1089 _224_
*1090 _225_
*1091 _226_
*1092 _227_
*1093 _228_
*1094 _229_
*1095 _230_
*1096 _231_
*1097 _232_
*1098 _233_
*1099 _234_
*1100 _235_
*1101 _236_
*1102 _237_
*1103 _238_
*1104 _239_
*1105 _240_
*1106 _241_
*1107 _242_
*1108 _243_
*1109 _244_
*1110 _245_
*1111 _246_
*1112 _247_
*1113 _248_
*1114 _249_
*1115 _250_
*1116 _251_
*1117 _252_
*1118 _253_
*1119 _254_
*1120 _255_
*1121 _256_
*1122 _257_
*1123 _258_
*1124 _259_
*1125 _260_
*1126 _261_
*1127 _262_
*1128 _263_
*1129 _264_
*1130 _265_
*1131 _266_
*1132 _267_
*1133 _268_
*1134 _269_
*1135 _270_
*1136 _271_
*1137 _272_
*1138 _273_
*1139 _274_
*1140 _275_
*1141 _276_
*1142 _277_
*1143 _278_
*1144 _279_
*1145 _280_
*1146 _281_
*1147 _282_
*1148 _283_
*1149 _284_
*1150 _285_
*1151 _286_
*1152 _287_
*1153 _288_
*1154 _289_
*1155 _290_
*1156 _291_
*1157 _292_
*1158 _293_
*1159 _294_
*1160 _295_
*1161 _296_
*1162 _297_
*1163 _298_
*1164 _299_
*1165 _300_
*1166 _301_
*1167 _302_
*1168 _303_
*1169 _304_
*1170 _305_
*1171 _306_
*1172 _307_
*1173 _308_
*1174 _309_
*1175 _310_
*1176 _311_
*1177 _312_
*1178 _313_
*1179 _314_
*1180 _315_
*1181 _316_
*1182 _317_
*1183 _318_
*1184 _319_
*1185 _320_
*1186 _321_
*1187 _322_
*1188 _323_
*1189 _324_
*1190 _325_
*1191 _326_
*1192 _327_
*1193 _328_
*1194 _329_
*1195 _330_
*1196 _331_
*1197 _332_
*1198 _333_
*1199 _334_
*1200 _335_
*1201 _336_
*1202 _337_
*1203 _338_
*1204 _339_
*1205 _340_
*1206 _341_
*1207 _342_
*1208 _343_
*1209 _344_
*1210 _345_
*1211 _346_
*1212 _347_
*1213 _348_
*1214 _349_
*1215 _350_
*1216 _351_
*1217 _352_
*1218 _353_
*1219 _354_
*1220 _355_
*1221 _356_
*1222 _357_
*1223 _358_
*1224 _359_
*1225 _360_
*1226 _361_
*1227 _362_
*1228 _363_
*1229 _364_
*1230 _365_
*1231 _366_
*1232 _367_
*1233 _368_
*1234 _369_
*1235 _370_
*1236 _371_
*1237 _372_
*1238 _373_
*1239 _374_
*1240 _375_
*1241 _376_
*1242 _377_
*1243 _378_
*1244 _379_
*1245 _380_
*1246 _381_
*1247 _382_
*1248 _383_
*1249 _384_
*1250 _385_
*1251 _386_
*1252 _387_
*1253 _388_
*1254 _389_
*1255 _390_
*1256 _391_
*1257 _392_
*1258 _393_
*1259 _394_
*1260 _395_
*1261 _396_
*1262 _397_
*1263 _398_
*1264 _399_
*1265 _400_
*1266 _401_
*1267 _402_
*1268 _403_
*1269 _404_
*1270 _405_
*1271 _406_
*1272 _407_
*1273 _408_
*1274 _409_
*1275 _410_
*1276 _411_
*1277 _412_
*1278 _413_
*1279 _414_
*1280 _415_
*1281 _416_
*1282 _417_
*1283 _418_
*1284 _419_
*1285 _420_
*1286 _421_
*1287 _422_
*1288 _423_
*1289 _424_
*1290 _425_
*1291 _426_
*1292 _427_
*1293 _428_
*1294 _429_
*1295 _430_
*1296 _431_
*1297 _432_
*1298 _433_
*1299 _434_
*1300 _435_
*1301 _436_
*1302 _437_
*1303 _438_
*1304 _439_
*1305 _440_
*1306 _441_
*1307 _442_
*1308 _443_
*1309 _444_
*1310 _445_
*1311 _446_
*1312 _447_
*1313 _448_
*1314 _449_
*1315 _450_
*1316 _451_
*1317 _452_
*1318 _453_
*1319 _454_
*1320 _455_
*1321 _456_
*1322 _457_
*1323 _458_
*1324 _459_
*1325 _460_
*1326 _461_
*1327 _462_
*1328 _463_
*1329 _464_
*1330 _465_
*1331 _466_
*1332 _467_
*1333 _468_
*1334 _469_
*1335 _470_
*1336 _471_
*1337 _472_
*1338 _473_
*1339 _474_
*1340 _475_
*1341 _476_
*1342 _477_
*1343 _478_
*1344 _479_
*1345 _480_
*1346 _481_
*1347 _482_
*1348 _483_
*1349 _484_
*1350 _485_
*1351 _486_
*1352 clkbuf_0_clk
*1353 clkbuf_3_0__f_clk
*1354 clkbuf_3_1__f_clk
*1355 clkbuf_3_2__f_clk
*1356 clkbuf_3_3__f_clk
*1357 clkbuf_3_4__f_clk
*1358 clkbuf_3_5__f_clk
*1359 clkbuf_3_6__f_clk
*1360 clkbuf_3_7__f_clk
*1361 hold1
*1362 hold10
*1363 hold11
*1364 hold12
*1365 hold13
*1366 hold14
*1367 hold15
*1368 hold16
*1369 hold17
*1370 hold18
*1371 hold19
*1372 hold2
*1373 hold20
*1374 hold21
*1375 hold22
*1376 hold23
*1377 hold24
*1378 hold25
*1379 hold26
*1380 hold27
*1381 hold28
*1382 hold29
*1383 hold3
*1384 hold30
*1385 hold31
*1386 hold32
*1387 hold33
*1388 hold34
*1389 hold35
*1390 hold36
*1391 hold37
*1392 hold38
*1393 hold39
*1394 hold4
*1395 hold40
*1396 hold41
*1397 hold42
*1398 hold43
*1399 hold44
*1400 hold45
*1401 hold46
*1402 hold47
*1403 hold5
*1404 hold6
*1405 hold7
*1406 hold8
*1407 hold9
*1408 input1
*1409 input10
*1410 input11
*1411 input12
*1412 input13
*1413 input14
*1414 input15
*1415 input16
*1416 input17
*1417 input2
*1418 input3
*1419 input4
*1420 input5
*1421 input6
*1422 input7
*1423 input8
*1424 input9
*1425 max_cap25
*1426 output18
*1427 output19
*1428 output20
*1429 output21
*1430 output22
*1431 output23
*1432 output24
*1433 wire26

*PORTS
clk I
i_valid I
i_value0[0] I
i_value0[1] I
i_value0[2] I
i_value1[0] I
i_value1[1] I
i_value1[2] I
i_value2[0] I
i_value2[1] I
i_value2[2] I
i_value3[0] I
i_value3[1] I
i_value3[2] I
i_value4[0] I
i_value4[1] I
i_value4[2] I
o_bucket[0] O
o_bucket[1] O
o_bucket[2] O
o_index[0] O
o_index[1] O
o_index[2] O
o_valid O
rst_n I

*D_NET *3 0.0114639
*CONN
*P clk I
*I *1352:A I *D sky130_fd_sc_hd__clkbuf_16
*CAP
1 clk 0.00572714
2 *1352:A 0.00572714
3 *1352:A *1416:A 0
4 *1352:A *239:18 0
5 *1352:A *364:8 9.5799e-06
*RES
1 clk *1352:A 16.8212 
*END

*D_NET *4 0.000866864
*CONN
*P i_valid I
*I *1408:A I *D sky130_fd_sc_hd__clkbuf_1
*CAP
1 i_valid 0.000433432
2 *1408:A 0.000433432
3 *1408:A *1291:D 0
4 *1408:A *1416:A 0
5 *1408:A *1417:A 0
*RES
1 i_valid *1408:A 10.2104 
*END

*D_NET *5 0.000681376
*CONN
*P i_value0[0] I
*I *1417:A I *D sky130_fd_sc_hd__clkbuf_1
*CAP
1 i_value0[0] 0.000340688
2 *1417:A 0.000340688
3 *1408:A *1417:A 0
*RES
1 i_value0[0] *1417:A 5.60503 
*END

*D_NET *6 0.000451541
*CONN
*P i_value0[1] I
*I *1418:A I *D sky130_fd_sc_hd__buf_1
*CAP
1 i_value0[1] 0.000225771
2 *1418:A 0.000225771
*RES
1 i_value0[1] *1418:A 6.38543 
*END

*D_NET *7 0.000619978
*CONN
*P i_value0[2] I
*I *1419:A I *D sky130_fd_sc_hd__buf_1
*CAP
1 i_value0[2] 0.000309989
2 *1419:A 0.000309989
3 *1419:A *1294:CLK 0
4 *1419:A *1420:A 0
5 *1419:A *281:14 0
*RES
1 i_value0[2] *1419:A 7.91543 
*END

*D_NET *8 0.000601659
*CONN
*P i_value1[0] I
*I *1420:A I *D sky130_fd_sc_hd__clkbuf_1
*CAP
1 i_value1[0] 0.000300829
2 *1420:A 0.000300829
3 *1420:A *1421:A 0
4 *1419:A *1420:A 0
*RES
1 i_value1[0] *1420:A 7.91543 
*END

*D_NET *9 0.00044468
*CONN
*P i_value1[1] I
*I *1421:A I *D sky130_fd_sc_hd__buf_1
*CAP
1 i_value1[1] 0.00022234
2 *1421:A 0.00022234
3 *1420:A *1421:A 0
*RES
1 i_value1[1] *1421:A 6.38543 
*END

*D_NET *10 0.000653981
*CONN
*P i_value1[2] I
*I *1422:A I *D sky130_fd_sc_hd__buf_1
*CAP
1 i_value1[2] 0.000326991
2 *1422:A 0.000326991
3 *1422:A *1423:A 0
*RES
1 i_value1[2] *1422:A 5.60503 
*END

*D_NET *11 0.000445459
*CONN
*P i_value2[0] I
*I *1423:A I *D sky130_fd_sc_hd__clkbuf_1
*CAP
1 i_value2[0] 0.00022273
2 *1423:A 0.00022273
3 *1423:A *1424:A 0
4 *1422:A *1423:A 0
*RES
1 i_value2[0] *1423:A 6.38543 
*END

*D_NET *12 0.000606966
*CONN
*P i_value2[1] I
*I *1424:A I *D sky130_fd_sc_hd__buf_1
*CAP
1 i_value2[1] 0.000303483
2 *1424:A 0.000303483
3 *1424:A *1409:A 0
4 *1423:A *1424:A 0
*RES
1 i_value2[1] *1424:A 7.91543 
*END

*D_NET *13 0.00044468
*CONN
*P i_value2[2] I
*I *1409:A I *D sky130_fd_sc_hd__buf_1
*CAP
1 i_value2[2] 0.00022234
2 *1409:A 0.00022234
3 *1424:A *1409:A 0
*RES
1 i_value2[2] *1409:A 6.38543 
*END

*D_NET *14 0.000624585
*CONN
*P i_value3[0] I
*I *1410:A I *D sky130_fd_sc_hd__clkbuf_1
*CAP
1 i_value3[0] 0.000312293
2 *1410:A 0.000312293
3 *1410:A *1411:A 0
*RES
1 i_value3[0] *1410:A 6.0289 
*END

*D_NET *15 0.000442458
*CONN
*P i_value3[1] I
*I *1411:A I *D sky130_fd_sc_hd__buf_1
*CAP
1 i_value3[1] 0.000221229
2 *1411:A 0.000221229
3 *1411:A *1412:A 0
4 *1410:A *1411:A 0
*RES
1 i_value3[1] *1411:A 6.38543 
*END

*D_NET *16 0.000629373
*CONN
*P i_value3[2] I
*I *1412:A I *D sky130_fd_sc_hd__buf_1
*CAP
1 i_value3[2] 0.000314687
2 *1412:A 0.000314687
3 *1412:A *242:85 0
4 *1411:A *1412:A 0
*RES
1 i_value3[2] *1412:A 7.91543 
*END

*D_NET *17 0.000635351
*CONN
*P i_value4[0] I
*I *1413:A I *D sky130_fd_sc_hd__clkbuf_1
*CAP
1 i_value4[0] 0.000311966
2 *1413:A 0.000311966
3 *1413:A *1313:CLK 1.14192e-05
*RES
1 i_value4[0] *1413:A 7.91543 
*END

*D_NET *18 0.000718242
*CONN
*P i_value4[1] I
*I *1414:A I *D sky130_fd_sc_hd__buf_1
*CAP
1 i_value4[1] 0.000276684
2 *1414:A 0.000276684
3 *1414:A *1415:A 0.000164874
4 *1414:A *255:12 0
*RES
1 i_value4[1] *1414:A 7.91543 
*END

*D_NET *19 0.000974926
*CONN
*P i_value4[2] I
*I *1415:A I *D sky130_fd_sc_hd__buf_1
*CAP
1 i_value4[2] 0.000380045
2 *1415:A 0.000380045
3 *1415:A *254:10 4.99619e-05
4 *1414:A *1415:A 0.000164874
*RES
1 i_value4[2] *1415:A 9.5337 
*END

*D_NET *20 0.00114429
*CONN
*P o_bucket[0] O
*I *1426:X O *D sky130_fd_sc_hd__clkbuf_4
*CAP
1 o_bucket[0] 0.000484828
2 *1426:X 0.000484828
3 o_bucket[0] *1241:A0 0
4 o_bucket[0] *1426:A 0.000119521
5 o_bucket[0] *257:10 5.51158e-05
*RES
1 *1426:X o_bucket[0] 10.0633 
*END

*D_NET *21 0.000623362
*CONN
*P o_bucket[1] O
*I *1427:X O *D sky130_fd_sc_hd__buf_2
*CAP
1 o_bucket[1] 0.000300449
2 *1427:X 0.000300449
3 o_bucket[1] *1427:A 2.24628e-05
*RES
1 *1427:X o_bucket[1] 5.27657 
*END

*D_NET *22 0.000748076
*CONN
*P o_bucket[2] O
*I *1428:X O *D sky130_fd_sc_hd__clkbuf_4
*CAP
1 o_bucket[2] 0.00032965
2 *1428:X 0.00032965
3 o_bucket[2] *1428:A 1.71512e-05
4 o_bucket[2] *1432:A 7.1624e-05
*RES
1 *1428:X o_bucket[2] 6.04157 
*END

*D_NET *23 0.00088239
*CONN
*P o_index[0] O
*I *1429:X O *D sky130_fd_sc_hd__clkbuf_4
*CAP
1 o_index[0] 0.000441195
2 *1429:X 0.000441195
*RES
1 *1429:X o_index[0] 8.41503 
*END

*D_NET *24 0.000656132
*CONN
*P o_index[1] O
*I *1430:X O *D sky130_fd_sc_hd__buf_2
*CAP
1 o_index[1] 0.000298599
2 *1430:X 0.000298599
3 o_index[1] *1429:A 5.89329e-05
*RES
1 *1430:X o_index[1] 6.04157 
*END

*D_NET *25 0.00116692
*CONN
*P o_index[2] O
*I *1431:X O *D sky130_fd_sc_hd__clkbuf_4
*CAP
1 o_index[2] 0.000508859
2 *1431:X 0.000508859
3 o_index[2] *1252:A0 4.05569e-05
4 o_index[2] *256:357 0.000108647
*RES
1 *1431:X o_index[2] 6.5077 
*END

*D_NET *26 0.000939351
*CONN
*P o_valid O
*I *1432:X O *D sky130_fd_sc_hd__clkbuf_4
*CAP
1 o_valid 0.000469676
2 *1432:X 0.000469676
*RES
1 *1432:X o_valid 8.59157 
*END

*D_NET *27 0.000613375
*CONN
*P rst_n I
*I *1416:A I *D sky130_fd_sc_hd__buf_12
*CAP
1 rst_n 0.000306688
2 *1416:A 0.000306688
3 *1352:A *1416:A 0
4 *1408:A *1416:A 0
*RES
1 rst_n *1416:A 7.91543 
*END

*D_NET *28 0.00168233
*CONN
*I *1287:D I *D sky130_fd_sc_hd__dfrtp_1
*I *1286:A I *D sky130_fd_sc_hd__nor2_1
*I *1079:X O *D sky130_fd_sc_hd__clkbuf_1
*CAP
1 *1287:D 0.0002328
2 *1286:A 0.0002706
3 *1079:X 0
4 *28:4 0.000503401
5 *1286:A *1286:B 0.000320089
6 *1286:A *1351:D 8.4841e-05
7 *1286:A *240:90 5.06989e-05
8 *1287:D *1078:A 0.000126561
9 *1287:D *94:25 7.18795e-06
10 *1287:D *240:90 8.61546e-05
*RES
1 *1079:X *28:4 1.6 
2 *28:4 *1286:A 11.06 
3 *28:4 *1287:D 4.73875 
*END

*D_NET *29 0.00048165
*CONN
*I *1343:D I *D sky130_fd_sc_hd__dfrtp_1
*I *1125:Y O *D sky130_fd_sc_hd__o21ai_1
*CAP
1 *1343:D 0.000184921
2 *1125:Y 0.000184921
3 *1343:D *1125:A2 8.64599e-05
4 *1343:D *1343:CLK 1.54954e-05
5 *1343:D *116:29 9.8522e-06
*RES
1 *1125:Y *1343:D 9.70875 
*END

*D_NET *30 0.00839526
*CONN
*I *1336:D I *D sky130_fd_sc_hd__dfrtp_1
*I *1245:S I *D sky130_fd_sc_hd__mux2_1
*I *1243:S I *D sky130_fd_sc_hd__mux2_1
*I *1241:S I *D sky130_fd_sc_hd__mux2_1
*I *1254:S I *D sky130_fd_sc_hd__mux2_1
*I *1252:S I *D sky130_fd_sc_hd__mux2_1
*I *1249:S I *D sky130_fd_sc_hd__mux2_1
*I *1113:X O *D sky130_fd_sc_hd__buf_2
*CAP
1 *1336:D 0.000225501
2 *1245:S 0.000188923
3 *1243:S 0.000202525
4 *1241:S 0.000209154
5 *1254:S 5.15879e-05
6 *1252:S 0.000165525
7 *1249:S 1.72052e-05
8 *1113:X 0.00011257
9 *30:71 0.000477834
10 *30:58 0.000872883
11 *30:20 0.00048454
12 *30:12 0.000710539
13 *30:10 0.000735537
14 *30:8 0.00088876
15 *1241:S *1241:A0 3.21772e-05
16 *1243:S *1243:A0 4.92827e-05
17 *1243:S *1243:A1 4.82919e-05
18 *1243:S *1244:A 0.000123225
19 *1245:S *1245:A1 7.10578e-05
20 *1249:S *1249:A0 4.77719e-05
21 *1252:S *1249:A0 0.000129829
22 *1252:S *1252:A1 4.82863e-05
23 *1254:S *1254:A0 2.21074e-05
24 *1254:S *1254:A1 8.53011e-05
25 *1336:D *1245:A0 0.000140063
26 *1336:D *1246:A 9.14049e-05
27 *1336:D *1336:CLK 0.000110627
28 *1336:D *1336:RESET_B 7.72463e-05
29 *1336:D *247:68 5.38678e-05
30 *1336:D *256:404 4.58101e-05
31 *30:10 *1111:A 0
32 *30:10 *1242:A 8.33107e-05
33 *30:10 *1333:D 0.000118527
34 *30:10 *97:14 0.000278418
35 *30:10 *256:353 0
36 *30:10 *256:355 0
37 *30:12 *1111:A 0
38 *30:12 *245:52 5.98273e-05
39 *30:12 *256:355 0
40 *30:20 *1252:A1 0
41 *30:20 *1253:A 9.18486e-05
42 *30:20 *1338:D 0.000120186
43 *30:20 *245:34 6.69573e-05
44 *30:20 *245:52 0.000150406
45 *30:58 *1244:A 9.14049e-05
46 *30:58 *97:14 0.000237355
47 *30:58 *247:68 2.32546e-05
48 *30:58 *256:335 0.000182261
49 *30:58 *256:339 0.000108278
50 *30:58 *256:394 0.00010543
51 *30:58 *256:404 3.69334e-05
52 *30:58 *355:10 0
53 *30:71 *247:68 5.6144e-05
54 *30:71 *256:404 6.52819e-05
*RES
1 *1113:X *30:8 4.74 
2 *30:8 *30:10 4.95 
3 *30:10 *30:12 5.97 
4 *30:12 *30:20 9.035 
5 *30:20 *1249:S 2.05 
6 *30:20 *1252:S 4.84 
7 *30:12 *1254:S 4.74 
8 *30:10 *1241:S 6.81 
9 *30:8 *30:58 13.365 
10 *30:58 *1243:S 7.425 
11 *30:58 *30:71 1.89 
12 *30:71 *1245:S 6.045 
13 *30:71 *1336:D 10.08 
*END

*D_NET *31 0.000276921
*CONN
*I *1288:D I *D sky130_fd_sc_hd__dfrtp_1
*I *1133:X O *D sky130_fd_sc_hd__clkbuf_1
*CAP
1 *1288:D 9.59027e-05
2 *1133:X 9.59027e-05
3 *1288:D *1288:CLK 7.08554e-05
4 *1288:D *1288:RESET_B 1.42598e-05
*RES
1 *1133:X *1288:D 5.045 
*END

*D_NET *32 0.00158965
*CONN
*I *1289:D I *D sky130_fd_sc_hd__dfrtp_1
*I *1135:X O *D sky130_fd_sc_hd__clkbuf_1
*CAP
1 *1289:D 0.000408652
2 *1135:X 0.000408652
3 *1289:D *1132:A0 0.000121644
4 *1289:D *1132:S 0
5 *1289:D *1134:A0 1.49348e-05
6 *1289:D *1134:A1 5.66717e-05
7 *1289:D *1135:A 0.000310927
8 *1289:D *1288:CLK 0.000131168
9 *1289:D *1289:CLK 0.000137
*RES
1 *1135:X *1289:D 15.525 
*END

*D_NET *33 0.000975181
*CONN
*I *1290:D I *D sky130_fd_sc_hd__dfrtp_1
*I *1137:X O *D sky130_fd_sc_hd__clkbuf_1
*CAP
1 *1290:D 0.000368195
2 *1137:X 0.000368195
3 *1290:D *1136:A0 8.33066e-06
4 *1290:D *1137:A 9.22826e-05
5 *1290:D *1290:CLK 1.79098e-05
6 *1290:D *243:112 0.000120269
*RES
1 *1137:X *1290:D 12.915 
*END

*D_NET *34 0.00052346
*CONN
*I *1291:D I *D sky130_fd_sc_hd__dfrtp_1
*I *1145:X O *D sky130_fd_sc_hd__clkbuf_1
*CAP
1 *1291:D 0.000207774
2 *1145:X 0.000207774
3 *1291:D *1076:A 3.89366e-05
4 *1291:D *1145:A 3.89366e-05
5 *1291:D *1291:CLK 3.00381e-05
6 *1291:D *256:23 0
7 *1408:A *1291:D 0
*RES
1 *1145:X *1291:D 10.815 
*END

*D_NET *35 0.000311012
*CONN
*I *1292:D I *D sky130_fd_sc_hd__dfrtp_1
*I *1147:X O *D sky130_fd_sc_hd__clkbuf_1
*CAP
1 *1292:D 0.000107418
2 *1147:X 0.000107418
3 *1292:D *1147:A 1.08758e-05
4 *1292:D *1292:RESET_B 8.53011e-05
*RES
1 *1147:X *1292:D 5.045 
*END

*D_NET *36 0.000326134
*CONN
*I *1293:D I *D sky130_fd_sc_hd__dfrtp_1
*I *1148:X O *D sky130_fd_sc_hd__a21o_1
*CAP
1 *1293:D 0.000114191
2 *1148:X 0.000114191
3 *1293:D *1293:CLK 8.53856e-06
4 *1293:D *1294:CLK 3.86607e-05
5 *1293:D *240:14 5.05521e-05
6 *1293:D *281:27 0
*RES
1 *1148:X *1293:D 8.91375 
*END

*D_NET *37 0.000258398
*CONN
*I *1294:D I *D sky130_fd_sc_hd__dfrtp_1
*I *1156:X O *D sky130_fd_sc_hd__clkbuf_1
*CAP
1 *1294:D 9.64288e-05
2 *1156:X 9.64288e-05
3 *1294:D *1156:A 6.55406e-05
*RES
1 *1156:X *1294:D 9.03 
*END

*D_NET *38 0.000230884
*CONN
*I *1295:D I *D sky130_fd_sc_hd__dfrtp_1
*I *1158:X O *D sky130_fd_sc_hd__clkbuf_1
*CAP
1 *1295:D 0.000112568
2 *1158:X 0.000112568
3 *1295:D *303:6 5.74817e-06
*RES
1 *1158:X *1295:D 8.775 
*END

*D_NET *39 0.00028985
*CONN
*I *1296:D I *D sky130_fd_sc_hd__dfrtp_1
*I *1159:X O *D sky130_fd_sc_hd__a21o_1
*CAP
1 *1296:D 9.86836e-05
2 *1159:X 9.86836e-05
3 *1296:D *239:87 9.24825e-05
*RES
1 *1159:X *1296:D 8.775 
*END

*D_NET *40 0.000470959
*CONN
*I *1297:D I *D sky130_fd_sc_hd__dfrtp_1
*I *1161:X O *D sky130_fd_sc_hd__clkbuf_1
*CAP
1 *1297:D 0.000135058
2 *1161:X 0.000135058
3 *1297:D *1297:RESET_B 2.05571e-05
4 *1297:D *1298:CLK 5.27885e-05
5 *1297:D *256:722 5.34699e-05
6 *1297:D *324:10 7.4027e-05
*RES
1 *1161:X *1297:D 9.915 
*END

*D_NET *41 0.000672181
*CONN
*I *1298:D I *D sky130_fd_sc_hd__dfrtp_1
*I *1163:X O *D sky130_fd_sc_hd__clkbuf_1
*CAP
1 *1298:D 0.00028976
2 *1163:X 0.00028976
3 *1298:D *1160:S 0
4 *1298:D *1162:A0 9.77048e-06
5 *1298:D *1163:A 1.9872e-05
6 *1298:D *1371:A 1.52418e-05
7 *1298:D *256:737 4.77757e-05
*RES
1 *1163:X *1298:D 11.61 
*END

*D_NET *42 0.000259831
*CONN
*I *1299:D I *D sky130_fd_sc_hd__dfrtp_1
*I *1165:X O *D sky130_fd_sc_hd__clkbuf_1
*CAP
1 *1299:D 0.000119828
2 *1165:X 0.000119828
3 *1299:D *1299:CLK 2.01737e-05
*RES
1 *1165:X *1299:D 5.045 
*END

*D_NET *43 0.000293546
*CONN
*I *1300:D I *D sky130_fd_sc_hd__dfrtp_1
*I *1173:X O *D sky130_fd_sc_hd__clkbuf_1
*CAP
1 *1300:D 7.21715e-05
2 *1173:X 7.21715e-05
3 *1300:D *1173:A 5.20968e-05
4 *1300:D *319:12 9.71067e-05
*RES
1 *1173:X *1300:D 8.775 
*END

*D_NET *44 0.000179435
*CONN
*I *1301:D I *D sky130_fd_sc_hd__dfrtp_1
*I *1175:X O *D sky130_fd_sc_hd__clkbuf_1
*CAP
1 *1301:D 8.97177e-05
2 *1175:X 8.97177e-05
3 *1301:D *256:86 0
*RES
1 *1175:X *1301:D 8.58 
*END

*D_NET *45 0.000575084
*CONN
*I *1302:D I *D sky130_fd_sc_hd__dfrtp_1
*I *1176:X O *D sky130_fd_sc_hd__a21o_1
*CAP
1 *1302:D 0.000158356
2 *1176:X 0.000158356
3 *1302:D *1176:B1 5.18362e-05
4 *1302:D *1306:RESET_B 4.76051e-05
5 *1302:D *93:139 2.74934e-05
6 *1302:D *242:47 8.36568e-05
7 *1302:D *249:14 4.77807e-05
*RES
1 *1176:X *1302:D 10.815 
*END

*D_NET *46 0.000587048
*CONN
*I *1303:D I *D sky130_fd_sc_hd__dfrtp_1
*I *1178:X O *D sky130_fd_sc_hd__clkbuf_1
*CAP
1 *1303:D 0.000157444
2 *1178:X 0.000157444
3 *1303:D *1303:CLK 4.31127e-05
4 *1303:D *1303:RESET_B 0.000114524
5 *1303:D *325:61 0.000114524
*RES
1 *1178:X *1303:D 10.41 
*END

*D_NET *47 0.00034048
*CONN
*I *1304:D I *D sky130_fd_sc_hd__dfrtp_1
*I *1180:X O *D sky130_fd_sc_hd__clkbuf_1
*CAP
1 *1304:D 0.000127921
2 *1180:X 0.000127921
3 *1304:D *1283:B1 0
4 *1304:D *239:87 1.22839e-05
5 *1304:D *256:621 7.23533e-05
*RES
1 *1180:X *1304:D 9.12 
*END

*D_NET *48 0.000808173
*CONN
*I *1305:D I *D sky130_fd_sc_hd__dfrtp_1
*I *1182:X O *D sky130_fd_sc_hd__clkbuf_1
*CAP
1 *1305:D 0.000196043
2 *1182:X 0.000196043
3 *1305:D *1375:A 4.75576e-05
4 *1305:D *324:68 0.000289698
5 *1305:D *325:46 7.8831e-05
*RES
1 *1182:X *1305:D 11.52 
*END

*D_NET *49 0.000235969
*CONN
*I *1306:D I *D sky130_fd_sc_hd__dfrtp_1
*I *1190:X O *D sky130_fd_sc_hd__clkbuf_1
*CAP
1 *1306:D 0.000107898
2 *1190:X 0.000107898
3 *1306:D *249:14 2.01737e-05
*RES
1 *1190:X *1306:D 8.775 
*END

*D_NET *50 0.000234055
*CONN
*I *1307:D I *D sky130_fd_sc_hd__dfrtp_1
*I *1192:X O *D sky130_fd_sc_hd__clkbuf_1
*CAP
1 *1307:D 8.10512e-05
2 *1192:X 8.10512e-05
3 *1307:D *1192:A 3.86607e-05
4 *1307:D *242:81 3.32922e-05
5 *1307:D *242:85 0
*RES
1 *1192:X *1307:D 8.56875 
*END

*D_NET *51 0.000585112
*CONN
*I *1308:D I *D sky130_fd_sc_hd__dfrtp_1
*I *1193:X O *D sky130_fd_sc_hd__a21o_1
*CAP
1 *1308:D 0.000234632
2 *1193:X 0.000234632
3 *1308:D *1193:A1 9.60582e-07
4 *1308:D *1193:B1 3.1522e-05
5 *1308:D *1312:CLK 3.67779e-05
6 *1308:D *242:79 4.65868e-05
7 *1308:D *252:12 0
*RES
1 *1193:X *1308:D 10.2788 
*END

*D_NET *52 0.00077667
*CONN
*I *1309:D I *D sky130_fd_sc_hd__dfrtp_1
*I *1195:X O *D sky130_fd_sc_hd__clkbuf_1
*CAP
1 *1309:D 0.00034186
2 *1195:X 0.00034186
3 *1309:D *1309:CLK 9.2951e-05
4 *1309:D *93:120 0
*RES
1 *1195:X *1309:D 11.64 
*END

*D_NET *53 0.000323865
*CONN
*I *1310:D I *D sky130_fd_sc_hd__dfrtp_1
*I *1197:X O *D sky130_fd_sc_hd__clkbuf_1
*CAP
1 *1310:D 0.000112369
2 *1197:X 0.000112369
3 *1310:D *1197:A 9.91257e-05
*RES
1 *1197:X *1310:D 5.39 
*END

*D_NET *54 0.000278674
*CONN
*I *1311:D I *D sky130_fd_sc_hd__dfrtp_1
*I *1199:X O *D sky130_fd_sc_hd__clkbuf_1
*CAP
1 *1311:D 0.000102812
2 *1199:X 0.000102812
3 *1311:D *1311:CLK 7.30505e-05
*RES
1 *1199:X *1311:D 5.045 
*END

*D_NET *55 0.000318854
*CONN
*I *1312:D I *D sky130_fd_sc_hd__dfrtp_1
*I *1201:X O *D sky130_fd_sc_hd__clkbuf_1
*CAP
1 *1312:D 9.72045e-05
2 *1201:X 9.72045e-05
3 *1312:D *1129:A2 6.14746e-05
4 *1312:D *1129:C1 3.10733e-05
5 *1312:D *1201:A 1.08758e-05
6 *1312:D *1312:CLK 2.10214e-05
*RES
1 *1201:X *1312:D 5.045 
*END

*D_NET *56 0.000724645
*CONN
*I *1313:D I *D sky130_fd_sc_hd__dfrtp_1
*I *1203:X O *D sky130_fd_sc_hd__clkbuf_1
*CAP
1 *1313:D 0.000301035
2 *1203:X 0.000301035
3 *1313:D *1126:A 0
4 *1313:D *1203:A 4.05358e-05
5 *1313:D *1314:D 0
6 *1313:D *253:12 8.20398e-05
7 *1313:D *255:12 0
8 *1313:D *353:8 0
*RES
1 *1203:X *1313:D 12.45 
*END

*D_NET *57 0.000492907
*CONN
*I *1314:D I *D sky130_fd_sc_hd__dfrtp_1
*I *1204:X O *D sky130_fd_sc_hd__a21o_1
*CAP
1 *1314:D 0.000246454
2 *1204:X 0.000246454
3 *1313:D *1314:D 0
*RES
1 *1204:X *1314:D 10.92 
*END

*D_NET *58 0.000309167
*CONN
*I *1315:D I *D sky130_fd_sc_hd__dfrtp_1
*I *1206:X O *D sky130_fd_sc_hd__clkbuf_1
*CAP
1 *1315:D 8.13388e-05
2 *1206:X 8.13388e-05
3 *1315:D *1206:A 4.76051e-05
4 *1315:D *243:30 9.05535e-05
5 *1315:D *243:43 8.33066e-06
*RES
1 *1206:X *1315:D 8.775 
*END

*D_NET *59 0.000738437
*CONN
*I *1316:D I *D sky130_fd_sc_hd__dfrtp_1
*I *1208:X O *D sky130_fd_sc_hd__clkbuf_1
*CAP
1 *1316:D 0.000268304
2 *1208:X 0.000268304
3 *1316:D *1176:A2 9.54813e-05
4 *1316:D *1176:B1 4.77757e-05
5 *1316:D *1208:A 5.85723e-05
*RES
1 *1208:X *1316:D 11.205 
*END

*D_NET *60 0.000314124
*CONN
*I *1317:D I *D sky130_fd_sc_hd__dfrtp_1
*I *1210:X O *D sky130_fd_sc_hd__clkbuf_1
*CAP
1 *1317:D 0.000131786
2 *1210:X 0.000131786
3 *1317:D *1209:A0 5.05521e-05
*RES
1 *1210:X *1317:D 5.39 
*END

*D_NET *61 0.000273067
*CONN
*I *1318:D I *D sky130_fd_sc_hd__dfrtp_1
*I *1212:X O *D sky130_fd_sc_hd__clkbuf_1
*CAP
1 *1318:D 7.48341e-05
2 *1212:X 7.48341e-05
3 *1318:D *1318:CLK 2.86975e-05
4 *1318:D *126:233 9.47017e-05
*RES
1 *1212:X *1318:D 5.045 
*END

*D_NET *62 0.000568035
*CONN
*I *1319:D I *D sky130_fd_sc_hd__dfrtp_1
*I *1214:X O *D sky130_fd_sc_hd__clkbuf_1
*CAP
1 *1319:D 0.00021586
2 *1214:X 0.00021586
3 *1319:D *1214:A 7.03219e-05
4 *1319:D *1318:CLK 3.75882e-06
5 *1319:D *305:12 6.22332e-05
*RES
1 *1214:X *1319:D 11.07 
*END

*D_NET *63 0.00109849
*CONN
*I *1320:D I *D sky130_fd_sc_hd__dfrtp_1
*I *1216:X O *D sky130_fd_sc_hd__clkbuf_1
*CAP
1 *1320:D 0.000466421
2 *1216:X 0.000466421
3 *1320:D *246:58 0.000165649
*RES
1 *1216:X *1320:D 13.605 
*END

*D_NET *64 0.000255439
*CONN
*I *1321:D I *D sky130_fd_sc_hd__dfrtp_1
*I *1218:X O *D sky130_fd_sc_hd__clkbuf_1
*CAP
1 *1321:D 8.67814e-05
2 *1218:X 8.67814e-05
3 *1321:D *246:20 5.30404e-05
4 *1321:D *246:26 2.88357e-05
*RES
1 *1218:X *1321:D 5.045 
*END

*D_NET *65 0.000522694
*CONN
*I *1322:D I *D sky130_fd_sc_hd__dfrtp_1
*I *1220:X O *D sky130_fd_sc_hd__clkbuf_1
*CAP
1 *1322:D 0.000172805
2 *1220:X 0.000172805
3 *1322:D *1134:A1 3.54721e-05
4 *1322:D *1205:A0 4.86395e-05
5 *1322:D *1388:A 2.4131e-05
6 *1322:D *243:62 6.88421e-05
*RES
1 *1220:X *1322:D 9.70875 
*END

*D_NET *66 0.000798997
*CONN
*I *1323:D I *D sky130_fd_sc_hd__dfrtp_1
*I *1222:X O *D sky130_fd_sc_hd__clkbuf_1
*CAP
1 *1323:D 0.000368315
2 *1222:X 0.000368315
3 *1323:D *1221:A1 2.3706e-05
4 *1323:D *256:280 3.86607e-05
*RES
1 *1222:X *1323:D 11.64 
*END

*D_NET *67 0.000490364
*CONN
*I *1324:D I *D sky130_fd_sc_hd__dfrtp_1
*I *1224:X O *D sky130_fd_sc_hd__clkbuf_1
*CAP
1 *1324:D 0.000131608
2 *1224:X 0.000131608
3 *1324:D *1194:A0 0
4 *1324:D *1324:CLK 2.01737e-05
5 *1324:D *1324:RESET_B 0.00015856
6 *1324:D *126:169 4.84138e-05
*RES
1 *1224:X *1324:D 9.81 
*END

*D_NET *68 0.000296766
*CONN
*I *1325:D I *D sky130_fd_sc_hd__dfrtp_1
*I *1226:X O *D sky130_fd_sc_hd__clkbuf_1
*CAP
1 *1325:D 4.67509e-05
2 *1226:X 4.67509e-05
3 *1325:D *1226:A 0.000113269
4 *1325:D *1325:CLK 2.86975e-05
5 *1325:D *256:234 6.12973e-05
*RES
1 *1226:X *1325:D 5.045 
*END

*D_NET *69 0.000401475
*CONN
*I *1326:D I *D sky130_fd_sc_hd__dfrtp_1
*I *1228:X O *D sky130_fd_sc_hd__clkbuf_1
*CAP
1 *1326:D 0.000138106
2 *1228:X 0.000138106
3 *1326:D *1326:CLK 0.000125262
*RES
1 *1228:X *1326:D 5.735 
*END

*D_NET *70 0.000185179
*CONN
*I *1327:D I *D sky130_fd_sc_hd__dfrtp_1
*I *1230:X O *D sky130_fd_sc_hd__clkbuf_1
*CAP
1 *1327:D 6.75699e-05
2 *1230:X 6.75699e-05
3 *1327:D *1230:A 5.00391e-05
*RES
1 *1230:X *1327:D 8.325 
*END

*D_NET *71 0.000437075
*CONN
*I *1328:D I *D sky130_fd_sc_hd__dfrtp_1
*I *1232:X O *D sky130_fd_sc_hd__clkbuf_1
*CAP
1 *1328:D 0.000125763
2 *1232:X 0.000125763
3 *1328:D *1231:A0 8.32227e-05
4 *1328:D *1327:RESET_B 6.23262e-05
5 *1328:D *1328:RESET_B 3.09011e-05
6 *1328:D *256:673 9.09788e-06
*RES
1 *1232:X *1328:D 9.57 
*END

*D_NET *72 0.000506811
*CONN
*I *1329:D I *D sky130_fd_sc_hd__dfrtp_1
*I *1234:X O *D sky130_fd_sc_hd__clkbuf_1
*CAP
1 *1329:D 0.000190958
2 *1234:X 0.000190958
3 *1329:D *1181:A0 0.000124895
4 *1329:D *1332:CLK 0
5 *1329:D *1332:RESET_B 0
6 *1329:D *244:50 0
*RES
1 *1234:X *1329:D 9.975 
*END

*D_NET *73 0.000250039
*CONN
*I *1330:D I *D sky130_fd_sc_hd__dfrtp_1
*I *1236:X O *D sky130_fd_sc_hd__clkbuf_1
*CAP
1 *1330:D 0.000117025
2 *1236:X 0.000117025
3 *1330:D *359:12 1.59888e-05
*RES
1 *1236:X *1330:D 8.775 
*END

*D_NET *74 0.00104247
*CONN
*I *1331:D I *D sky130_fd_sc_hd__dfrtp_1
*I *1238:X O *D sky130_fd_sc_hd__clkbuf_1
*CAP
1 *1331:D 0.000173333
2 *1238:X 0.000173333
3 *1331:D *1162:A0 4.89395e-05
4 *1331:D *1235:S 0
5 *1331:D *1237:A1 0.000383682
6 *1331:D *1238:A 0.000181667
7 *1331:D *1363:A 4.81356e-05
8 *1331:D *1364:A 3.33763e-05
*RES
1 *1238:X *1331:D 12.735 
*END

*D_NET *75 0.000708581
*CONN
*I *1332:D I *D sky130_fd_sc_hd__dfrtp_1
*I *1240:X O *D sky130_fd_sc_hd__clkbuf_1
*CAP
1 *1332:D 0.000290612
2 *1240:X 0.000290612
3 *1332:D *1240:A 4.89295e-05
4 *1332:D *1332:CLK 7.84279e-05
*RES
1 *1240:X *1332:D 7.805 
*END

*D_NET *76 0.000417372
*CONN
*I *1333:D I *D sky130_fd_sc_hd__dfrtp_1
*I *1242:X O *D sky130_fd_sc_hd__clkbuf_1
*CAP
1 *1333:D 0.000117594
2 *1242:X 0.000117594
3 *1333:D *1242:A 6.36578e-05
4 *30:10 *1333:D 0.000118527
*RES
1 *1242:X *1333:D 9.48 
*END

*D_NET *77 0.000406685
*CONN
*I *1334:D I *D sky130_fd_sc_hd__dfrtp_1
*I *1244:X O *D sky130_fd_sc_hd__clkbuf_1
*CAP
1 *1334:D 0.000142829
2 *1244:X 0.000142829
3 *1334:D *1244:A 0.000121027
*RES
1 *1244:X *1334:D 5.045 
*END

*D_NET *78 0.000409644
*CONN
*I *1335:D I *D sky130_fd_sc_hd__dfrtp_1
*I *1246:X O *D sky130_fd_sc_hd__clkbuf_1
*CAP
1 *1335:D 0.000144397
2 *1246:X 0.000144397
3 *1335:D *1246:A 0.000120851
*RES
1 *1246:X *1335:D 5.045 
*END

*D_NET *79 0.00027218
*CONN
*I *1337:D I *D sky130_fd_sc_hd__dfrtp_1
*I *1250:X O *D sky130_fd_sc_hd__clkbuf_1
*CAP
1 *1337:D 0.000121742
2 *1250:X 0.000121742
3 *1337:D *1337:CLK 2.86975e-05
*RES
1 *1250:X *1337:D 5.045 
*END

*D_NET *80 0.000251609
*CONN
*I *1338:D I *D sky130_fd_sc_hd__dfrtp_1
*I *1253:X O *D sky130_fd_sc_hd__clkbuf_1
*CAP
1 *1338:D 3.20073e-05
2 *1253:X 3.20073e-05
3 *1338:D *1253:A 6.74079e-05
4 *30:20 *1338:D 0.000120186
*RES
1 *1253:X *1338:D 8.58 
*END

*D_NET *81 0.000267435
*CONN
*I *1339:D I *D sky130_fd_sc_hd__dfrtp_1
*I *1255:X O *D sky130_fd_sc_hd__clkbuf_1
*CAP
1 *1339:D 0.000120294
2 *1255:X 0.000120294
3 *1339:D *245:69 2.68464e-05
*RES
1 *1255:X *1339:D 5.045 
*END

*D_NET *82 0.000333306
*CONN
*I *1340:D I *D sky130_fd_sc_hd__dfrtp_4
*I *1260:X O *D sky130_fd_sc_hd__clkbuf_1
*CAP
1 *1340:D 0.000153227
2 *1260:X 0.000153227
3 *1340:D *1340:CLK 2.68526e-05
*RES
1 *1260:X *1340:D 5.045 
*END

*D_NET *83 0.000253205
*CONN
*I *1341:D I *D sky130_fd_sc_hd__dfrtp_1
*I *1265:X O *D sky130_fd_sc_hd__o211a_1
*CAP
1 *1341:D 7.92516e-05
2 *1265:X 7.92516e-05
3 *1341:D *1342:CLK 2.86975e-05
4 *1341:D *247:36 6.60042e-05
*RES
1 *1265:X *1341:D 4.685 
*END

*D_NET *84 0.000332998
*CONN
*I *1342:D I *D sky130_fd_sc_hd__dfrtp_1
*I *1268:Y O *D sky130_fd_sc_hd__a21oi_1
*CAP
1 *1342:D 0.000136554
2 *1268:Y 0.000136554
3 *1342:D *1342:CLK 3.23663e-05
4 *1342:D *256:315 2.75229e-05
*RES
1 *1268:Y *1342:D 5.45 
*END

*D_NET *85 0.00111309
*CONN
*I *1344:D I *D sky130_fd_sc_hd__dfrtp_1
*I *1270:Y O *D sky130_fd_sc_hd__nand2_1
*CAP
1 *1344:D 0.000531823
2 *1270:Y 0.000531823
3 *1344:D *1269:B1 4.94404e-05
4 *1344:D *1344:RESET_B 0
5 *1344:D *134:12 0
*RES
1 *1270:Y *1344:D 14.055 
*END

*D_NET *86 0.000695564
*CONN
*I *1345:D I *D sky130_fd_sc_hd__dfrtp_1
*I *1272:Y O *D sky130_fd_sc_hd__nand2_1
*CAP
1 *1345:D 0.000247291
2 *1272:Y 0.000247291
3 *1345:D *1249:A1 0.000181111
4 *1345:D *1272:B 1.9872e-05
*RES
1 *1272:Y *1345:D 11.46 
*END

*D_NET *87 0.000343421
*CONN
*I *1346:D I *D sky130_fd_sc_hd__dfrtp_1
*I *1275:X O *D sky130_fd_sc_hd__clkbuf_1
*CAP
1 *1346:D 0.000171711
2 *1275:X 0.000171711
*RES
1 *1275:X *1346:D 5.39 
*END

*D_NET *88 0.00140305
*CONN
*I *1347:D I *D sky130_fd_sc_hd__dfrtp_1
*I *1278:X O *D sky130_fd_sc_hd__clkbuf_1
*CAP
1 *1347:D 0.000442814
2 *1278:X 0.000442814
3 *1347:D *1277:B 0.000110492
4 *1347:D *1278:A 6.65881e-05
5 *1347:D *1347:RESET_B 3.57349e-05
6 *1347:D *1433:A 0.000150292
7 *1347:D *124:6 1.33205e-05
8 *1347:D *124:34 2.20608e-05
9 *1347:D *256:451 8.52845e-05
10 *1347:D *256:459 2.79046e-05
11 *1347:D *355:48 5.74784e-06
*RES
1 *1278:X *1347:D 14.235 
*END

*D_NET *89 0.00033047
*CONN
*I *1348:D I *D sky130_fd_sc_hd__dfrtp_1
*I *1281:X O *D sky130_fd_sc_hd__clkbuf_1
*CAP
1 *1348:D 0.000147306
2 *1281:X 0.000147306
3 *1348:D *1348:CLK 1.87038e-05
4 *1348:D *1348:RESET_B 1.71542e-05
*RES
1 *1281:X *1348:D 5.045 
*END

*D_NET *90 0.000832777
*CONN
*I *1349:D I *D sky130_fd_sc_hd__dfrtp_4
*I *1282:X O *D sky130_fd_sc_hd__xor2_1
*CAP
1 *1349:D 0.000259834
2 *1282:X 0.000259834
3 *1349:D *1282:B 0.000160121
4 *1349:D *1349:CLK 6.73665e-05
5 *1349:D *1349:RESET_B 0
6 *1349:D *240:94 8.56227e-05
7 *1349:D *256:707 0
*RES
1 *1282:X *1349:D 12.87 
*END

*D_NET *91 0.000404552
*CONN
*I *1350:D I *D sky130_fd_sc_hd__dfrtp_4
*I *1284:Y O *D sky130_fd_sc_hd__nor2_1
*CAP
1 *1350:D 0.000114274
2 *1284:Y 0.000114274
3 *1350:D *1283:B1 8.35157e-05
4 *1350:D *1284:A 9.24881e-05
*RES
1 *1284:Y *1350:D 9.12 
*END

*D_NET *92 0.000903891
*CONN
*I *1351:D I *D sky130_fd_sc_hd__dfrtp_4
*I *1286:Y O *D sky130_fd_sc_hd__nor2_1
*CAP
1 *1351:D 0.000305388
2 *1286:Y 0.000305388
3 *1351:D *1286:B 8.98462e-05
4 *1351:D *1351:RESET_B 0.000118428
5 *1286:A *1351:D 8.4841e-05
*RES
1 *1286:Y *1351:D 11.4 
*END

*D_NET *93 0.0189184
*CONN
*I *1159:A1 I *D sky130_fd_sc_hd__a21o_1
*I *1176:A1 I *D sky130_fd_sc_hd__a21o_1
*I *1193:A1 I *D sky130_fd_sc_hd__a21o_1
*I *1204:A2 I *D sky130_fd_sc_hd__a21o_1
*I *1131:C1 I *D sky130_fd_sc_hd__o221a_2
*I *1188:C1 I *D sky130_fd_sc_hd__o221a_2
*I *1171:C1 I *D sky130_fd_sc_hd__o221a_2
*I *1154:C1 I *D sky130_fd_sc_hd__o221a_2
*I *1148:A1 I *D sky130_fd_sc_hd__a21o_1
*I *1143:C1 I *D sky130_fd_sc_hd__o221a_2
*I *1077:A I *D sky130_fd_sc_hd__and3_1
*I *1283:A1 I *D sky130_fd_sc_hd__a21oi_1
*I *1282:A I *D sky130_fd_sc_hd__xor2_1
*I *1076:X O *D sky130_fd_sc_hd__buf_4
*CAP
1 *1159:A1 0.00030885
2 *1176:A1 3.10477e-05
3 *1193:A1 4.06904e-05
4 *1204:A2 0.000489261
5 *1131:C1 0
6 *1188:C1 2.61658e-05
7 *1171:C1 0.000103104
8 *1154:C1 0
9 *1148:A1 6.25535e-05
10 *1143:C1 2.8848e-05
11 *1077:A 0.000387375
12 *1283:A1 0
13 *1282:A 0
14 *1076:X 0.000133114
15 *93:168 0.000781451
16 *93:164 0.000767496
17 *93:147 0.000854003
18 *93:139 0.0008043
19 *93:120 0.00113208
20 *93:114 0.00122936
21 *93:95 0.000823104
22 *93:66 0.000821805
23 *93:53 0.000525559
24 *93:23 0.000604533
25 *93:10 0.000700733
26 *93:6 0.000905687
27 *1077:A *1283:A2 2.246e-05
28 *1077:A *1284:B 3.50152e-06
29 *1077:A *1285:A 0.000122801
30 *1077:A *328:10 0.000114518
31 *1143:C1 *1142:A1 4.90291e-05
32 *1143:C1 *1143:A2 4.65924e-05
33 *1143:C1 *1143:B2 5.79005e-05
34 *1148:A1 *1148:B1 0.000179197
35 *1148:A1 *281:14 3.65689e-05
36 *1148:A1 *281:27 8.65905e-05
37 *1159:A1 *1159:A2 0.000155373
38 *1159:A1 *1159:B1 1.43396e-05
39 *1159:A1 *1296:RESET_B 3.96748e-05
40 *1159:A1 *1403:A 2.30258e-05
41 *1159:A1 *162:44 1.75536e-05
42 *1171:C1 *1171:B2 1.01976e-05
43 *1171:C1 *1172:S 4.66108e-05
44 *1171:C1 *1355:A 0.000117186
45 *1171:C1 *173:8 2.86375e-05
46 *1176:A1 *1316:CLK 1.08758e-05
47 *1188:C1 *1187:B1 0
48 *1188:C1 *1188:B2 1.37328e-05
49 *1188:C1 *184:12 1.1742e-05
50 *1204:A2 *1129:A1 6.86785e-05
51 *1204:A2 *1130:B1 8.49205e-05
52 *1204:A2 *1131:B1 5.31158e-06
53 *1204:A2 *1202:A0 1.47256e-05
54 *1204:A2 *1202:S 0.000113428
55 *1204:A2 *1204:B1 8.8266e-05
56 *1204:A2 *1394:A 2.75145e-05
57 *1204:A2 *255:23 0.00021257
58 *93:6 *1145:A 5.30673e-05
59 *93:6 *256:23 4.80285e-05
60 *93:10 *1144:A0 0.000124895
61 *93:10 *1144:S 0.000312964
62 *93:10 *256:23 2.7441e-05
63 *93:10 *327:12 0.000158965
64 *93:23 *1282:B 2.68464e-05
65 *93:23 *240:94 7.03823e-05
66 *93:53 *1141:C1 0.000112595
67 *93:53 *1142:B1 6.28503e-05
68 *93:53 *1144:A1 0.00032763
69 *93:53 *256:23 2.83921e-05
70 *93:53 *270:14 2.09958e-05
71 *93:66 *1142:B1 5.36975e-06
72 *93:66 *1294:RESET_B 0
73 *93:66 *240:12 0
74 *93:66 *281:27 0.000352328
75 *93:95 *1151:A 0.000100301
76 *93:95 *1155:A0 4.05358e-05
77 *93:95 *1155:S 0
78 *93:95 *1156:A 0
79 *93:95 *1294:CLK 0
80 *93:95 *1295:CLK 0.000171149
81 *93:95 *158:12 0.00020048
82 *93:95 *240:8 2.75229e-05
83 *93:95 *240:12 0
84 *93:95 *303:27 7.03219e-05
85 *93:95 *314:18 1.89895e-05
86 *93:114 *1154:A2 5.85307e-05
87 *93:114 *1154:B1 1.12643e-05
88 *93:114 *1154:B2 9.55262e-06
89 *93:114 *1157:S 4.03068e-05
90 *93:114 *1296:RESET_B 4.66108e-05
91 *93:114 *162:12 6.81888e-05
92 *93:114 *162:44 4.31915e-05
93 *93:120 *1167:A 0
94 *93:120 *1174:A0 3.86607e-05
95 *93:120 *1174:S 0.000164679
96 *93:120 *1175:A 0.000140063
97 *93:120 *1309:CLK 0
98 *93:120 *1355:A 7.21296e-06
99 *93:120 *1403:A 1.21329e-05
100 *93:120 *256:76 9.10613e-05
101 *93:120 *256:86 0
102 *93:120 *256:112 0.000231571
103 *93:120 *314:10 0
104 *93:139 *1171:B1 0
105 *93:139 *1176:B1 9.23635e-05
106 *93:139 *1185:A 0
107 *93:139 *1306:RESET_B 0.000133453
108 *93:139 *1355:A 1.22762e-05
109 *93:139 *242:60 0.000178061
110 *93:139 *256:112 0.000318294
111 *93:147 *1176:A2 5.4155e-06
112 *93:147 *1176:B1 9.53428e-06
113 *93:147 *1185:A 0.000139245
114 *93:147 *1186:A1 0.00015997
115 *93:147 *1188:B1 4.94404e-05
116 *93:147 *1189:S 0
117 *93:147 *1316:CLK 1.52563e-05
118 *93:147 *1396:A 7.11365e-05
119 *93:164 *1186:A1 6.75724e-05
120 *93:164 *1188:A2 0
121 *93:164 *1188:B1 3.24046e-05
122 *93:164 *1191:A0 4.31189e-05
123 *93:164 *1193:A2 7.11365e-05
124 *93:164 *1398:A 0.000276492
125 *93:164 *252:12 0
126 *93:164 *256:821 0.000229084
127 *93:168 *1129:A1 8.55298e-05
128 *93:168 *1131:B1 6.05046e-05
129 *93:168 *1312:CLK 0.000107615
130 *93:168 *252:10 2.23253e-05
131 *1302:D *93:139 2.74934e-05
132 *1308:D *1193:A1 9.60582e-07
133 *1309:D *93:120 0
*RES
1 *1076:X *93:6 4.12 
2 *93:6 *93:10 9.435 
3 *93:10 *1282:A 1.6 
4 *93:10 *93:23 7.195 
5 *93:23 *1283:A1 1.6 
6 *93:23 *1077:A 12.425 
7 *93:6 *93:53 8.525 
8 *93:53 *1143:C1 4.755 
9 *93:53 *93:66 4.44 
10 *93:66 *1148:A1 5.805 
11 *93:66 *93:95 16.755 
12 *93:95 *1154:C1 1.6 
13 *93:95 *93:114 5.55 
14 *93:114 *93:120 14.63 
15 *93:120 *1171:C1 6.255 
16 *93:120 *93:139 10.265 
17 *93:139 *93:147 9.335 
18 *93:147 *1188:C1 4.215 
19 *93:147 *93:164 10.175 
20 *93:164 *93:168 7.46 
21 *93:168 *1131:C1 3.6 
22 *93:168 *1204:A2 12.39 
23 *93:164 *1193:A1 2.05 
24 *93:139 *1176:A1 2.05 
25 *93:114 *1159:A1 9.785 
*END

*D_NET *94 0.0018287
*CONN
*I *1078:B I *D sky130_fd_sc_hd__and2_1
*I *1285:B I *D sky130_fd_sc_hd__nor2_1
*I *1284:A I *D sky130_fd_sc_hd__nor2_1
*I *1077:X O *D sky130_fd_sc_hd__and3_1
*CAP
1 *1078:B 1.15067e-05
2 *1285:B 0.000128687
3 *1284:A 0.00013124
4 *1077:X 3.69588e-05
5 *94:25 0.000326919
6 *94:8 0.000354924
7 *1078:B *1078:A 5.12969e-06
8 *1284:A *1283:A2 0.000282033
9 *1285:B *1079:A 0.000123955
10 *1285:B *240:90 6.60753e-05
11 *94:8 *1077:B 4.66108e-05
12 *94:25 *1078:A 2.01737e-05
13 *94:25 *1283:A2 8.46596e-05
14 *94:25 *240:90 2.68464e-05
15 *94:25 *240:92 4.33239e-05
16 *94:25 *256:621 3.9987e-05
17 *1287:D *94:25 7.18795e-06
18 *1350:D *1284:A 9.24881e-05
*RES
1 *1077:X *94:8 4.05 
2 *94:8 *1284:A 7.02 
3 *94:8 *94:25 5.645 
4 *94:25 *1285:B 4.135 
5 *94:25 *1078:B 1.96 
*END

*D_NET *95 0.000283054
*CONN
*I *1079:A I *D sky130_fd_sc_hd__clkbuf_1
*I *1078:X O *D sky130_fd_sc_hd__and2_1
*CAP
1 *1079:A 1.75724e-05
2 *1078:X 1.75724e-05
3 *1079:A *240:90 0.000123955
4 *1285:B *1079:A 0.000123955
*RES
1 *1078:X *1079:A 4.34 
*END

*D_NET *96 0.000290237
*CONN
*I *1089:A2 I *D sky130_fd_sc_hd__a211o_1
*I *1080:Y O *D sky130_fd_sc_hd__inv_2
*CAP
1 *1089:A2 9.1013e-05
2 *1080:Y 9.1013e-05
3 *1089:A2 *1088:A1 0
4 *1089:A2 *1089:C1 2.87867e-05
5 *1089:A2 *1262:A 2.75145e-05
6 *1089:A2 *99:31 4.89395e-05
7 *1089:A2 *355:78 2.97004e-06
*RES
1 *1080:Y *1089:A2 9.03 
*END

*D_NET *97 0.00710282
*CONN
*I *1279:B1 I *D sky130_fd_sc_hd__a21oi_1
*I *1124:A1 I *D sky130_fd_sc_hd__o2111a_2
*I *1089:B1 I *D sky130_fd_sc_hd__a211o_1
*I *1081:Y O *D sky130_fd_sc_hd__inv_2
*CAP
1 *1279:B1 0
2 *1124:A1 0
3 *1089:B1 0.000599483
4 *1081:Y 0.000756523
5 *97:30 0.00147099
6 *97:14 0.00162803
7 *1089:B1 *1088:A1 0.000166735
8 *1089:B1 *1101:B1 0.000202226
9 *1089:B1 *1116:B1 2.41307e-05
10 *1089:B1 *1118:A2 0.000133657
11 *1089:B1 *1251:A1 5.65627e-05
12 *1089:B1 *1263:A 0.00013475
13 *1089:B1 *1276:A3 8.53113e-06
14 *1089:B1 *1276:B1 0.00011626
15 *1089:B1 *120:18 0.000274538
16 *1089:B1 *355:48 2.59545e-05
17 *1089:B1 *355:78 0.000191445
18 *1089:B1 *377:25 0
19 *97:14 *1333:CLK 0.000156019
20 *97:14 *256:339 0.000178569
21 *97:30 *1112:C 0.00012182
22 *97:30 *1113:A 2.03356e-05
23 *97:30 *1118:B1 7.10077e-05
24 *97:30 *1124:B1 4.55864e-06
25 *97:30 *1124:D1 7.05371e-05
26 *97:30 *1276:B1 5.44492e-05
27 *97:30 *1333:CLK 5.83121e-06
28 *97:30 *124:38 1.14823e-05
29 *97:30 *137:37 0
30 *97:30 *373:21 9.28507e-05
31 *97:30 *373:25 9.77048e-06
32 *30:10 *97:14 0.000278418
33 *30:58 *97:14 0.000237355
*RES
1 *1081:Y *97:14 18.335 
2 *97:14 *97:30 15.8538 
3 *97:30 *1089:B1 20.5812 
4 *97:30 *1124:A1 1.6 
5 *97:14 *1279:B1 1.6 
*END

*D_NET *98 0.0102735
*CONN
*I *1116:A1 I *D sky130_fd_sc_hd__a2111oi_1
*I *1088:A1 I *D sky130_fd_sc_hd__a221o_1
*I *1104:A1 I *D sky130_fd_sc_hd__a2111o_1
*I *1258:B1 I *D sky130_fd_sc_hd__o21ai_1
*I *1257:A I *D sky130_fd_sc_hd__or3_1
*I *1101:A1 I *D sky130_fd_sc_hd__o21ai_1
*I *1108:A1 I *D sky130_fd_sc_hd__a2111o_2
*I *1092:A1 I *D sky130_fd_sc_hd__a221oi_2
*I *1105:A1 I *D sky130_fd_sc_hd__o21ai_1
*I *1082:Y O *D sky130_fd_sc_hd__inv_2
*CAP
1 *1116:A1 0.000116623
2 *1088:A1 0.00024922
3 *1104:A1 0
4 *1258:B1 0.000184886
5 *1257:A 0
6 *1101:A1 0
7 *1108:A1 8.63762e-05
8 *1092:A1 0.00073759
9 *1105:A1 0
10 *1082:Y 0.000398256
11 *98:105 0.000702804
12 *98:98 0.000444162
13 *98:72 0.000705309
14 *98:61 0.000779754
15 *98:18 0.000856812
16 *98:14 0.000451386
17 *98:12 0.000720851
18 *98:10 0.00072119
19 *1088:A1 *1084:A 0
20 *1088:A1 *1088:B2 2.99731e-05
21 *1088:A1 *1089:C1 2.87867e-05
22 *1088:A1 *355:48 3.72081e-05
23 *1092:A1 *1095:A1 4.29462e-05
24 *1092:A1 *1105:A2 1.81518e-05
25 *1092:A1 *1105:B1 3.29947e-05
26 *1092:A1 *1108:B1 4.31222e-06
27 *1092:A1 *1123:B1 2.16999e-05
28 *1092:A1 *1247:B 6.11525e-06
29 *1092:A1 *99:57 5.71481e-05
30 *1092:A1 *106:8 3.79351e-05
31 *1092:A1 *256:459 0
32 *1092:A1 *361:25 4.89362e-05
33 *1092:A1 *376:10 2.12738e-05
34 *1108:A1 *1108:C1 8.40269e-05
35 *1108:A1 *1347:CLK 8.65905e-05
36 *1108:A1 *256:451 1.90762e-05
37 *1116:A1 *1116:A2 8.64599e-05
38 *1116:A1 *1263:A 3.12916e-05
39 *1258:B1 *1259:C 4.67609e-05
40 *1258:B1 *1265:C1 7.5589e-05
41 *1258:B1 *127:60 7.16635e-05
42 *1258:B1 *139:27 0
43 *1258:B1 *219:19 2.24523e-05
44 *1258:B1 *247:8 5.30673e-05
45 *98:10 *102:28 5.43476e-05
46 *98:10 *118:12 0.000103823
47 *98:12 *1359:A 3.12855e-05
48 *98:14 *1108:B1 5.12017e-06
49 *98:14 *1108:D1 0.000293719
50 *98:14 *1347:CLK 0.000106837
51 *98:14 *1359:A 9.27736e-05
52 *98:14 *1425:A 0
53 *98:14 *1433:A 0
54 *98:18 *1108:B1 3.18219e-05
55 *98:18 *1247:A 0
56 *98:18 *126:48 0
57 *98:18 *376:10 0
58 *98:61 *1104:B1 6.04667e-05
59 *98:61 *120:18 5.83121e-06
60 *98:72 *1101:B1 0.000306852
61 *98:72 *1104:B1 3.30017e-05
62 *98:72 *1116:B1 1.05984e-05
63 *98:72 *1257:B 3.69837e-05
64 *98:72 *1259:C 3.64998e-06
65 *98:72 *120:18 0.000146777
66 *98:98 *367:23 0.000122801
67 *98:98 *367:32 4.89295e-05
68 *98:105 *1116:A2 0.000233581
69 *98:105 *367:32 0.000257892
70 *1089:A2 *1088:A1 0
71 *1089:B1 *1088:A1 0.000166735
*RES
1 *1082:Y *98:10 8.715 
2 *98:10 *98:12 3.42 
3 *98:12 *98:14 5.97 
4 *98:14 *98:18 3.89 
5 *98:18 *1105:A1 1.6 
6 *98:18 *1092:A1 17.495 
7 *98:14 *1108:A1 5.445 
8 *98:12 *98:61 6.17 
9 *98:61 *1101:A1 1.6 
10 *98:61 *98:72 9.885 
11 *98:72 *1257:A 1.6 
12 *98:72 *1258:B1 9.695 
13 *98:10 *98:98 3.485 
14 *98:98 *1104:A1 1.6 
15 *98:98 *98:105 4.59 
16 *98:105 *1088:A1 10.805 
17 *98:105 *1116:A1 3.805 
*END

*D_NET *99 0.0135962
*CONN
*I *1243:A1 I *D sky130_fd_sc_hd__mux2_1
*I *1265:A1 I *D sky130_fd_sc_hd__o211a_1
*I *1262:B I *D sky130_fd_sc_hd__nand2_1
*I *1085:A I *D sky130_fd_sc_hd__nand2_1
*I *1084:A I *D sky130_fd_sc_hd__or2_1
*I *1102:A I *D sky130_fd_sc_hd__xor2_1
*I *1106:A I *D sky130_fd_sc_hd__xor2_1
*I *1090:A I *D sky130_fd_sc_hd__inv_2
*I *1097:B I *D sky130_fd_sc_hd__xnor2_1
*I *1263:B I *D sky130_fd_sc_hd__or2_1
*I *1083:X O *D sky130_fd_sc_hd__clkbuf_4
*CAP
1 *1243:A1 0.000224179
2 *1265:A1 0
3 *1262:B 3.09453e-05
4 *1085:A 2.09808e-05
5 *1084:A 0.000164749
6 *1102:A 3.34843e-05
7 *1106:A 0.000131296
8 *1090:A 0
9 *1097:B 0.000612434
10 *1263:B 0.00013068
11 *1083:X 0
12 *99:57 0.0014139
13 *99:43 0.00125722
14 *99:41 0.000821927
15 *99:33 0.00071985
16 *99:31 0.000358263
17 *99:29 0.000447926
18 *99:14 0.000711186
19 *99:8 0.00123539
20 *99:4 0.00104988
21 *1084:A *1084:B 1.16578e-05
22 *1084:A *1085:B 3.79351e-05
23 *1084:A *1088:B2 0
24 *1084:A *119:20 2.44416e-05
25 *1097:B *1095:D1 0
26 *1097:B *1096:B 0
27 *1097:B *1098:B 0.000699829
28 *1097:B *1100:A2 1.14192e-05
29 *1097:B *1358:A 0
30 *1097:B *108:16 0.00016656
31 *1097:B *355:20 0.000151141
32 *1243:A1 *1366:A 0
33 *1243:A1 *1427:A 0
34 *1243:A1 *256:394 0
35 *1243:A1 *256:404 0
36 *1262:B *1262:A 3.69812e-05
37 *1262:B *105:16 1.37464e-05
38 *1263:B *1263:A 0.00012398
39 *99:8 *1083:A 1.01551e-05
40 *99:8 *1265:B1 1.26044e-05
41 *99:8 *1341:RESET_B 1.34636e-05
42 *99:8 *1342:CLK 4.8854e-05
43 *99:8 *247:36 9.28507e-05
44 *99:8 *256:327 1.33269e-05
45 *99:8 *256:331 1.98623e-05
46 *99:8 *256:394 2.05049e-05
47 *99:14 *1264:C1 0.00023003
48 *99:14 *1265:B1 2.78002e-05
49 *99:14 *1265:C1 2.49909e-05
50 *99:14 *102:28 2.17489e-05
51 *99:31 *1088:B2 1.9872e-05
52 *99:31 *1089:C1 4.02438e-05
53 *99:31 *1262:A 8.2178e-05
54 *99:31 *105:16 9.32375e-05
55 *99:31 *355:78 4.77807e-05
56 *99:33 *1085:B 0.000122801
57 *99:33 *1088:B2 4.6368e-06
58 *99:41 *1085:B 8.41384e-05
59 *99:41 *102:30 2.93136e-05
60 *99:41 *102:78 4.65246e-05
61 *99:43 *1108:C1 2.23922e-05
62 *99:43 *1217:A0 4.83032e-05
63 *99:43 *102:30 0.000271855
64 *99:43 *102:38 0.000114753
65 *99:43 *239:122 0
66 *99:43 *246:20 0.000106242
67 *99:43 *256:256 0
68 *99:57 *1105:A2 0.000116158
69 *99:57 *1108:C1 0.000206123
70 *99:57 *1225:A0 0
71 *99:57 *1274:B 0.000138015
72 *99:57 *1275:A 5.15164e-05
73 *99:57 *1346:CLK 0.000221469
74 *99:57 *102:38 0.000229088
75 *99:57 *108:16 4.77807e-05
76 *99:57 *126:40 0.000119251
77 *99:57 *239:18 0
78 *99:57 *239:50 0
79 *1088:A1 *1084:A 0
80 *1089:A2 *99:31 4.89395e-05
81 *1092:A1 *99:57 5.71481e-05
82 *1243:S *1243:A1 4.82919e-05
*RES
1 *1083:X *99:4 1.6 
2 *99:4 *99:8 9.945 
3 *99:8 *99:14 7.205 
4 *99:14 *1263:B 5.865 
5 *99:14 *99:29 4.655 
6 *99:29 *99:31 5.28 
7 *99:31 *99:33 1.83 
8 *99:33 *99:41 9.53 
9 *99:41 *99:43 8.265 
10 *99:43 *99:57 21.195 
11 *99:57 *1097:B 18.98 
12 *99:57 *1090:A 1.6 
13 *99:43 *1106:A 5.43 
14 *99:41 *1102:A 4.05 
15 *99:33 *1084:A 8.39 
16 *99:31 *1085:A 1.96 
17 *99:29 *1262:B 2.4475 
18 *99:8 *1265:A1 1.6 
19 *99:4 *1243:A1 8.96 
*END

*D_NET *100 0.000232706
*CONN
*I *1088:B1 I *D sky130_fd_sc_hd__a221o_1
*I *1084:X O *D sky130_fd_sc_hd__or2_1
*CAP
1 *1088:B1 0.000110721
2 *1084:X 0.000110721
3 *1088:B1 *1088:B2 1.12643e-05
*RES
1 *1084:X *1088:B1 4.685 
*END

*D_NET *101 0.000316255
*CONN
*I *1088:B2 I *D sky130_fd_sc_hd__a221o_1
*I *1085:Y O *D sky130_fd_sc_hd__nand2_1
*CAP
1 *1088:B2 0.000120706
2 *1085:Y 0.000120706
3 *1088:B2 *1088:C1 9.09788e-06
4 *1084:A *1088:B2 0
5 *1088:A1 *1088:B2 2.99731e-05
6 *1088:B1 *1088:B2 1.12643e-05
7 *99:31 *1088:B2 1.9872e-05
8 *99:33 *1088:B2 4.6368e-06
*RES
1 *1085:Y *1088:B2 9.13875 
*END

*D_NET *102 0.0123223
*CONN
*I *1245:A1 I *D sky130_fd_sc_hd__mux2_1
*I *1267:A I *D sky130_fd_sc_hd__or4_1
*I *1266:B1 I *D sky130_fd_sc_hd__o31ai_1
*I *1087:A I *D sky130_fd_sc_hd__xor2_1
*I *1103:A I *D sky130_fd_sc_hd__xor2_1
*I *1107:A I *D sky130_fd_sc_hd__xor2_1
*I *1094:A I *D sky130_fd_sc_hd__or2b_1
*I *1096:B I *D sky130_fd_sc_hd__xnor2_1
*I *1091:B I *D sky130_fd_sc_hd__and2b_1
*I *1086:X O *D sky130_fd_sc_hd__clkbuf_4
*CAP
1 *1245:A1 0.00025534
2 *1267:A 1.90984e-05
3 *1266:B1 0
4 *1087:A 0.000207271
5 *1103:A 3.37585e-05
6 *1107:A 0.000101714
7 *1094:A 4.45402e-05
8 *1096:B 0.000262611
9 *1091:B 0
10 *1086:X 0
11 *102:78 0.000452358
12 *102:49 0.000531141
13 *102:38 0.000822414
14 *102:30 0.000979749
15 *102:28 0.00136662
16 *102:18 0.000993766
17 *102:14 0.000660932
18 *102:4 0.000779087
19 *1087:A *1087:B 1.70935e-05
20 *1087:A *119:20 0
21 *1087:A *369:12 4.7043e-05
22 *1096:B *1095:D1 8.30853e-06
23 *1096:B *1233:A1 0
24 *1096:B *1358:A 0.000125543
25 *1107:A *1108:D1 4.65607e-05
26 *1107:A *239:122 0.000235573
27 *1245:A1 *1246:A 2.04923e-05
28 *1267:A *1267:D 4.00541e-06
29 *102:14 *1268:A2 8.65905e-05
30 *102:14 *247:64 5.83121e-06
31 *102:14 *247:68 0
32 *102:14 *256:315 0
33 *102:14 *256:327 4.70326e-05
34 *102:18 *1262:A 3.26889e-05
35 *102:18 *1267:C 1.42674e-05
36 *102:18 *1267:D 9.02898e-05
37 *102:18 *1268:A1 8.8266e-05
38 *102:18 *1268:A2 0.000203178
39 *102:18 *224:6 2.49909e-05
40 *102:18 *224:21 2.69217e-05
41 *102:28 *1082:A 5.07702e-05
42 *102:28 *1264:A1 0.000112589
43 *102:28 *1264:B1 2.69153e-05
44 *102:28 *1264:C1 1.54665e-05
45 *102:28 *1266:A1 0
46 *102:28 *105:16 1.11025e-05
47 *102:28 *118:12 0.000421158
48 *102:28 *355:59 0.00010946
49 *102:30 *1347:CLK 3.91211e-05
50 *102:38 *1092:B1 0
51 *102:38 *1092:C1 0
52 *102:38 *1105:A2 0.000116158
53 *102:38 *1346:CLK 0.000282164
54 *102:38 *1347:CLK 9.07255e-05
55 *102:38 *126:48 0.000707151
56 *102:38 *244:36 0.000442912
57 *102:38 *362:27 4.99619e-05
58 *102:49 *1095:A1 2.49724e-05
59 *102:49 *1095:B1 1.77595e-05
60 *102:49 *1095:D1 9.08126e-05
61 *102:49 *362:27 0.000239383
62 *102:78 *119:20 0
63 *1097:B *1096:B 0
64 *1245:S *1245:A1 7.10578e-05
65 *98:10 *102:28 5.43476e-05
66 *99:14 *102:28 2.17489e-05
67 *99:41 *102:30 2.93136e-05
68 *99:41 *102:78 4.65246e-05
69 *99:43 *102:30 0.000271855
70 *99:43 *102:38 0.000114753
71 *99:57 *102:38 0.000229088
*RES
1 *1086:X *102:4 1.6 
2 *102:4 *102:14 11.515 
3 *102:14 *102:18 3.57 
4 *102:18 *102:28 20.76 
5 *102:28 *102:30 6.48 
6 *102:30 *102:38 19.835 
7 *102:38 *1091:B 1.6 
8 *102:38 *102:49 6.335 
9 *102:49 *1096:B 8.295 
10 *102:49 *1094:A 4.05 
11 *102:30 *1107:A 6.12 
12 *102:28 *102:78 3.675 
13 *102:78 *1103:A 4.05 
14 *102:78 *1087:A 7.14 
15 *102:18 *1266:B1 1.6 
16 *102:14 *1267:A 1.96 
17 *102:4 *1245:A1 5.77 
*END

*D_NET *103 0.000960994
*CONN
*I *1088:C1 I *D sky130_fd_sc_hd__a221o_1
*I *1087:X O *D sky130_fd_sc_hd__xor2_1
*CAP
1 *1088:C1 0.000475948
2 *1087:X 0.000475948
3 *1088:B2 *1088:C1 9.09788e-06
*RES
1 *1087:X *1088:C1 12.735 
*END

*D_NET *104 0.000372581
*CONN
*I *1089:C1 I *D sky130_fd_sc_hd__a211o_1
*I *1088:X O *D sky130_fd_sc_hd__a221o_1
*CAP
1 *1089:C1 0.000110736
2 *1088:X 0.000110736
3 *1089:C1 *1262:A 4.24164e-05
4 *1089:C1 *355:78 1.08758e-05
5 *1088:A1 *1089:C1 2.87867e-05
6 *1089:A2 *1089:C1 2.87867e-05
7 *99:31 *1089:C1 4.02438e-05
*RES
1 *1088:X *1089:C1 9.585 
*END

*D_NET *105 0.0031758
*CONN
*I *1109:A I *D sky130_fd_sc_hd__and4_1
*I *1115:A_N I *D sky130_fd_sc_hd__and4b_1
*I *1089:X O *D sky130_fd_sc_hd__a211o_1
*CAP
1 *1109:A 9.78325e-06
2 *1115:A_N 0
3 *1089:X 0.000774094
4 *105:16 0.000783877
5 *1109:A *1109:B 4.99619e-05
6 *1109:A *1109:C 2.75229e-05
7 *105:16 *1112:A_N 0
8 *105:16 *1256:B 0
9 *105:16 *1262:A 3.06569e-06
10 *105:16 *1264:A1 7.03219e-05
11 *105:16 *1264:A2 0.000110791
12 *105:16 *1264:B1 2.87181e-05
13 *105:16 *127:60 0
14 *105:16 *139:27 0
15 *105:16 *139:31 0.000222481
16 *105:16 *139:42 0.000135382
17 *105:16 *219:8 0.000118513
18 *105:16 *219:19 0.000217101
19 *105:16 *219:28 0.000146657
20 *105:16 *219:43 0.000166088
21 *105:16 *219:58 0.000106013
22 *105:16 *224:6 6.81824e-05
23 *105:16 *224:21 1.91597e-05
24 *1262:B *105:16 1.37464e-05
25 *99:31 *105:16 9.32375e-05
26 *102:28 *105:16 1.11025e-05
*RES
1 *1089:X *105:16 21.29 
2 *105:16 *1115:A_N 1.6 
3 *105:16 *1109:A 2.05 
*END

*D_NET *106 0.000961808
*CONN
*I *1092:B2 I *D sky130_fd_sc_hd__a221oi_2
*I *1095:A1 I *D sky130_fd_sc_hd__o2111a_1
*I *1090:Y O *D sky130_fd_sc_hd__inv_2
*CAP
1 *1092:B2 3.58421e-05
2 *1095:A1 0.000246211
3 *1090:Y 4.14284e-05
4 *106:8 0.000323482
5 *1095:A1 *1092:B1 5.69161e-05
6 *1095:A1 *1095:B1 3.41667e-05
7 *1095:A1 *1095:C1 7.01359e-05
8 *1095:A1 *362:27 4.77719e-05
9 *1092:A1 *1095:A1 4.29462e-05
10 *1092:A1 *106:8 3.79351e-05
11 *102:49 *1095:A1 2.49724e-05
*RES
1 *1090:Y *106:8 4.47 
2 *106:8 *1095:A1 8.16 
3 *106:8 *1092:B2 4.215 
*END

*D_NET *107 0.000276857
*CONN
*I *1092:C1 I *D sky130_fd_sc_hd__a221oi_2
*I *1091:X O *D sky130_fd_sc_hd__and2b_1
*CAP
1 *1092:C1 0.000106719
2 *1091:X 0.000106719
3 *1092:C1 *1092:B1 4.23114e-05
4 *1092:C1 *362:27 2.11084e-05
5 *102:38 *1092:C1 0
*RES
1 *1091:X *1092:C1 9.03 
*END

*D_NET *108 0.00279529
*CONN
*I *1122:A1 I *D sky130_fd_sc_hd__a21o_1
*I *1120:B I *D sky130_fd_sc_hd__nand3b_1
*I *1100:A1 I *D sky130_fd_sc_hd__a21oi_1
*I *1092:Y O *D sky130_fd_sc_hd__a221oi_2
*CAP
1 *1122:A1 8.27884e-05
2 *1120:B 5.57888e-05
3 *1100:A1 0
4 *1092:Y 0.00050725
5 *108:27 0.000247234
6 *108:16 0.000615907
7 *1120:B *1095:B1 8.3303e-06
8 *1120:B *1100:A2 3.19343e-05
9 *1120:B *111:14 0.000117825
10 *1120:B *115:40 7.41751e-05
11 *1122:A1 *1122:A2 0.000121043
12 *1122:A1 *1122:B1 2.21074e-05
13 *108:16 *1100:A2 4.77769e-05
14 *108:16 *129:52 4.77769e-05
15 *108:16 *361:25 1.33269e-05
16 *108:27 *1100:A2 0.000248994
17 *108:27 *1100:B1 0.000112849
18 *108:27 *115:40 2.68111e-05
19 *108:27 *116:16 7.08297e-05
20 *108:27 *129:52 0.000121659
21 *108:27 *355:20 6.54361e-06
22 *1097:B *108:16 0.00016656
23 *99:57 *108:16 4.77807e-05
*RES
1 *1092:Y *108:16 13.925 
2 *108:16 *1100:A1 1.6 
3 *108:16 *108:27 6.05 
4 *108:27 *1120:B 5.385 
5 *108:27 *1122:A1 5.085 
*END

*D_NET *109 0.00069429
*CONN
*I *1095:C1 I *D sky130_fd_sc_hd__o2111a_1
*I *1093:X O *D sky130_fd_sc_hd__or2b_1
*CAP
1 *1095:C1 0.000202001
2 *1093:X 0.000202001
3 *1095:C1 *1093:A 2.14005e-05
4 *1095:C1 *361:25 0.000198752
5 *1095:A1 *1095:C1 7.01359e-05
*RES
1 *1093:X *1095:C1 10.245 
*END

*D_NET *110 0.000288203
*CONN
*I *1095:D1 I *D sky130_fd_sc_hd__o2111a_1
*I *1094:X O *D sky130_fd_sc_hd__or2b_1
*CAP
1 *1095:D1 9.45408e-05
2 *1094:X 9.45408e-05
3 *1096:B *1095:D1 8.30853e-06
4 *1097:B *1095:D1 0
5 *102:49 *1095:D1 9.08126e-05
*RES
1 *1094:X *1095:D1 8.835 
*END

*D_NET *111 0.00200007
*CONN
*I *1120:C I *D sky130_fd_sc_hd__nand3b_1
*I *1100:A2 I *D sky130_fd_sc_hd__a21oi_1
*I *1122:A2 I *D sky130_fd_sc_hd__a21o_1
*I *1095:X O *D sky130_fd_sc_hd__o2111a_1
*CAP
1 *1120:C 0
2 *1100:A2 0.000170868
3 *1122:A2 0.000106227
4 *1095:X 0.000193034
5 *111:14 0.000321619
6 *111:10 0.000237557
7 *1100:A2 *1098:B 2.41525e-05
8 *1100:A2 *355:20 0.000112732
9 *1122:A2 *1122:B1 4.77807e-05
10 *111:10 *1095:B1 0.000114493
11 *111:10 *1120:A_N 2.48591e-05
12 *111:14 *1098:B 5.92191e-05
13 *111:14 *1120:A_N 8.53113e-06
14 *1097:B *1100:A2 1.14192e-05
15 *1120:B *1100:A2 3.19343e-05
16 *1120:B *111:14 0.000117825
17 *1122:A1 *1122:A2 0.000121043
18 *108:16 *1100:A2 4.77769e-05
19 *108:27 *1100:A2 0.000248994
*RES
1 *1095:X *111:10 5.185 
2 *111:10 *111:14 3.38 
3 *111:14 *1122:A2 5.7 
4 *111:14 *1100:A2 7.755 
5 *111:10 *1120:C 1.6 
*END

*D_NET *112 0.00140181
*CONN
*I *1099:B I *D sky130_fd_sc_hd__and4_1
*I *1119:A I *D sky130_fd_sc_hd__nand3_1
*I *1096:Y O *D sky130_fd_sc_hd__xnor2_1
*CAP
1 *1099:B 6.75785e-05
2 *1119:A 0.000133131
3 *1096:Y 0.000328303
4 *112:12 0.000529012
5 *1099:B *1099:C 2.21074e-05
6 *1099:B *1099:D 3.69049e-05
7 *1099:B *374:12 3.00381e-05
8 *1119:A *1099:D 6.54361e-06
9 *1119:A *1119:B 7.71607e-05
10 *1119:A *115:10 0
11 *1119:A *134:12 0
12 *112:12 *1099:D 0.000121659
13 *112:12 *113:8 4.93705e-05
*RES
1 *1096:Y *112:12 6.925 
2 *112:12 *1119:A 7.85 
3 *112:12 *1099:B 3.1 
*END

*D_NET *113 0.000975361
*CONN
*I *1099:C I *D sky130_fd_sc_hd__and4_1
*I *1119:B I *D sky130_fd_sc_hd__nand3_1
*I *1097:Y O *D sky130_fd_sc_hd__xnor2_1
*CAP
1 *1099:C 6.4928e-05
2 *1119:B 8.9562e-05
3 *1097:Y 6.40259e-05
4 *113:8 0.000218516
5 *1099:C *1099:D 0.000121043
6 *1099:C *115:10 3.69049e-05
7 *1119:B *1099:D 9.05535e-05
8 *1119:B *114:8 1.22325e-05
9 *113:8 *1099:D 4.66108e-05
10 *113:8 *115:10 8.23457e-05
11 *1099:B *1099:C 2.21074e-05
12 *1119:A *1119:B 7.71607e-05
13 *112:12 *113:8 4.93705e-05
*RES
1 *1097:Y *113:8 3.1 
2 *113:8 *1119:B 7.535 
3 *113:8 *1099:C 3.085 
*END

*D_NET *114 0.000831119
*CONN
*I *1119:C I *D sky130_fd_sc_hd__nand3_1
*I *1099:D I *D sky130_fd_sc_hd__and4_1
*I *1098:Y O *D sky130_fd_sc_hd__xnor2_1
*CAP
1 *1119:C 0
2 *1099:D 0.000124406
3 *1098:Y 4.8332e-05
4 *114:8 0.000172738
5 *1099:D *115:10 5.0096e-05
6 *1099:B *1099:D 3.69049e-05
7 *1099:C *1099:D 0.000121043
8 *1119:A *1099:D 6.54361e-06
9 *1119:B *1099:D 9.05535e-05
10 *1119:B *114:8 1.22325e-05
11 *112:12 *1099:D 0.000121659
12 *113:8 *1099:D 4.66108e-05
*RES
1 *1098:Y *114:8 2.41 
2 *114:8 *1099:D 8.72 
3 *114:8 *1119:C 1.6 
*END

*D_NET *115 0.00339798
*CONN
*I *1100:B1 I *D sky130_fd_sc_hd__a21oi_1
*I *1122:B1 I *D sky130_fd_sc_hd__a21o_1
*I *1248:A1 I *D sky130_fd_sc_hd__o21ai_1
*I *1120:A_N I *D sky130_fd_sc_hd__nand3b_1
*I *1099:X O *D sky130_fd_sc_hd__and4_1
*CAP
1 *1100:B1 0.000146362
2 *1122:B1 0.000100556
3 *1248:A1 0.000101105
4 *1120:A_N 8.85772e-05
5 *1099:X 0.000352512
6 *115:40 0.000384011
7 *115:27 0.000293426
8 *115:10 0.000496318
9 *1100:B1 *116:16 9.47488e-05
10 *1100:B1 *129:52 3.83194e-05
11 *1120:A_N *1095:B1 1.33285e-05
12 *1120:A_N *1098:B 7.02789e-05
13 *1122:B1 *137:14 6.72833e-06
14 *1248:A1 *1095:B1 4.66108e-05
15 *1248:A1 *1121:A2 1.86443e-05
16 *1248:A1 *1124:C1 0.000194694
17 *1248:A1 *1248:A2 1.08758e-05
18 *1248:A1 *135:6 4.47209e-05
19 *1248:A1 *135:15 8.17212e-05
20 *115:10 *1098:B 0.000223549
21 *115:10 *1121:A1 0
22 *115:10 *374:12 0
23 *115:10 *375:12 2.72917e-05
24 *115:27 *375:12 4.78868e-05
25 *115:40 *1124:C1 0
26 *115:40 *375:12 2.92496e-05
27 *1099:C *115:10 3.69049e-05
28 *1099:D *115:10 5.0096e-05
29 *1119:A *115:10 0
30 *1120:B *115:40 7.41751e-05
31 *1122:A1 *1122:B1 2.21074e-05
32 *1122:A2 *1122:B1 4.77807e-05
33 *108:27 *1100:B1 0.000112849
34 *108:27 *115:40 2.68111e-05
35 *111:10 *1120:A_N 2.48591e-05
36 *111:14 *1120:A_N 8.53113e-06
37 *113:8 *115:10 8.23457e-05
*RES
1 *1099:X *115:10 11.0325 
2 *115:10 *1120:A_N 5.4375 
3 *115:10 *115:27 1.3425 
4 *115:27 *1248:A1 6.48 
5 *115:27 *115:40 2.4 
6 *115:40 *1122:B1 5.445 
7 *115:40 *1100:B1 6.885 
*END

*D_NET *116 0.00281802
*CONN
*I *1109:B I *D sky130_fd_sc_hd__and4_1
*I *1115:B I *D sky130_fd_sc_hd__and4b_1
*I *1118:A1 I *D sky130_fd_sc_hd__a31o_1
*I *1100:Y O *D sky130_fd_sc_hd__a21oi_1
*CAP
1 *1109:B 5.43191e-05
2 *1115:B 0
3 *1118:A1 0
4 *1100:Y 0.000360413
5 *116:29 0.000456394
6 *116:16 0.000762488
7 *1109:B *1109:C 8.54179e-05
8 *1109:B *1109:D 0.00025838
9 *116:16 *1118:A2 4.42148e-05
10 *116:16 *1251:A1 7.28465e-06
11 *116:16 *1273:B1 5.67865e-06
12 *116:16 *124:44 0
13 *116:16 *137:20 0.00017709
14 *116:16 *137:37 7.9642e-06
15 *116:29 *1112:A_N 0
16 *116:29 *1118:A2 4.89395e-05
17 *116:29 *1118:A3 4.77769e-05
18 *116:29 *1124:B1 1.19928e-05
19 *116:29 *1125:A2 0.000133985
20 *116:29 *1343:CLK 6.81928e-05
21 *116:29 *127:47 0
22 *116:29 *127:60 0
23 *116:29 *139:27 6.20952e-05
24 *1100:B1 *116:16 9.47488e-05
25 *1109:A *1109:B 4.99619e-05
26 *1343:D *116:29 9.8522e-06
27 *108:27 *116:16 7.08297e-05
*RES
1 *1100:Y *116:16 12.08 
2 *116:16 *1118:A1 1.6 
3 *116:16 *116:29 11.395 
4 *116:29 *1115:B 1.6 
5 *116:29 *1109:B 4.135 
*END

*D_NET *117 0.00104676
*CONN
*I *1116:B1 I *D sky130_fd_sc_hd__a2111oi_1
*I *1104:B1 I *D sky130_fd_sc_hd__a2111o_1
*I *1101:Y O *D sky130_fd_sc_hd__o21ai_1
*CAP
1 *1116:B1 0.000144045
2 *1104:B1 0.000226479
3 *1101:Y 0
4 *117:4 0.000370524
5 *1104:B1 *1433:A 3.6227e-05
6 *1116:B1 *1101:B1 7.09572e-05
7 *1116:B1 *355:48 7.03276e-05
8 *1089:B1 *1116:B1 2.41307e-05
9 *98:61 *1104:B1 6.04667e-05
10 *98:72 *1104:B1 3.30017e-05
11 *98:72 *1116:B1 1.05984e-05
*RES
1 *1101:Y *117:4 1.6 
2 *117:4 *1104:B1 8.645 
3 *117:4 *1116:B1 7.955 
*END

*D_NET *118 0.00181782
*CONN
*I *1116:C1 I *D sky130_fd_sc_hd__a2111oi_1
*I *1104:C1 I *D sky130_fd_sc_hd__a2111o_1
*I *1102:X O *D sky130_fd_sc_hd__xor2_1
*CAP
1 *1116:C1 7.12283e-05
2 *1104:C1 0
3 *1102:X 0.000223249
4 *118:12 0.000294477
5 *1116:C1 *1116:A2 0.00014828
6 *1116:C1 *1116:D1 6.31625e-05
7 *1116:C1 *1433:A 0.000158543
8 *1116:C1 *367:32 0.000159165
9 *118:12 *119:20 0.000174729
10 *98:10 *118:12 0.000103823
11 *102:28 *118:12 0.000421158
*RES
1 *1102:X *118:12 11.645 
2 *118:12 *1104:C1 1.6 
3 *118:12 *1116:C1 4.465 
*END

*D_NET *119 0.0021952
*CONN
*I *1116:D1 I *D sky130_fd_sc_hd__a2111oi_1
*I *1104:D1 I *D sky130_fd_sc_hd__a2111o_1
*I *1103:X O *D sky130_fd_sc_hd__xor2_1
*CAP
1 *1116:D1 0.000126934
2 *1104:D1 4.69349e-05
3 *1103:X 0.000609303
4 *119:20 0.000783172
5 *1116:D1 *1433:A 0.000158543
6 *1116:D1 *120:18 4.66108e-05
7 *119:20 *1085:B 0.000115614
8 *119:20 *1433:A 2.50779e-05
9 *119:20 *371:12 2.06767e-05
10 *1084:A *119:20 2.44416e-05
11 *1087:A *119:20 0
12 *1116:C1 *1116:D1 6.31625e-05
13 *102:78 *119:20 0
14 *118:12 *119:20 0.000174729
*RES
1 *1103:X *119:20 15.965 
2 *119:20 *1104:D1 2.41 
3 *119:20 *1116:D1 4.48 
*END

*D_NET *120 0.00508355
*CONN
*I *1109:C I *D sky130_fd_sc_hd__and4_1
*I *1115:C I *D sky130_fd_sc_hd__and4b_1
*I *1251:A1 I *D sky130_fd_sc_hd__a21oi_1
*I *1104:X O *D sky130_fd_sc_hd__a2111o_1
*CAP
1 *1109:C 0.000239349
2 *1115:C 0
3 *1251:A1 0.000299521
4 *1104:X 0.000467238
5 *120:37 0.000497031
6 *120:18 0.00102444
7 *1109:C *1109:D 2.80037e-05
8 *1251:A1 *1118:A2 0
9 *1251:A1 *1251:A2 4.93662e-06
10 *1251:A1 *1273:A3 6.90254e-05
11 *1251:A1 *1276:A3 8.05415e-05
12 *1251:A1 *137:20 6.00545e-05
13 *1251:A1 *137:37 7.26146e-05
14 *1251:A1 *355:20 0.000212169
15 *1251:A1 *355:48 0.000349104
16 *120:18 *1101:A2 9.03081e-05
17 *120:18 *1433:A 9.66249e-05
18 *120:18 *355:48 0.000482562
19 *120:37 *1109:D 3.27294e-05
20 *120:37 *1115:D 1.38655e-06
21 *120:37 *124:34 0.000187941
22 *120:37 *124:81 9.39252e-05
23 *120:37 *377:8 4.34975e-05
24 *1089:B1 *1251:A1 5.65627e-05
25 *1089:B1 *120:18 0.000274538
26 *1109:A *1109:C 2.75229e-05
27 *1109:B *1109:C 8.54179e-05
28 *1116:D1 *120:18 4.66108e-05
29 *98:61 *120:18 5.83121e-06
30 *98:72 *120:18 0.000146777
31 *116:16 *1251:A1 7.28465e-06
*RES
1 *1104:X *120:18 18.43 
2 *120:18 *1251:A1 10.785 
3 *120:18 *120:37 7.4 
4 *120:37 *1115:C 1.6 
5 *120:37 *1109:C 5.185 
*END

*D_NET *121 0.000700025
*CONN
*I *1108:B1 I *D sky130_fd_sc_hd__a2111o_2
*I *1105:Y O *D sky130_fd_sc_hd__o21ai_1
*CAP
1 *1108:B1 0.000186004
2 *1105:Y 0.000186004
3 *1108:B1 *1105:A2 0.000161794
4 *1108:B1 *1347:CLK 9.50342e-06
5 *1108:B1 *126:48 0.000115464
6 *1092:A1 *1108:B1 4.31222e-06
7 *98:14 *1108:B1 5.12017e-06
8 *98:18 *1108:B1 3.18219e-05
*RES
1 *1105:Y *1108:B1 10.41 
*END

*D_NET *122 0.00101887
*CONN
*I *1108:C1 I *D sky130_fd_sc_hd__a2111o_2
*I *1106:X O *D sky130_fd_sc_hd__xor2_1
*CAP
1 *1108:C1 0.000327152
2 *1106:X 0.000327152
3 *1108:C1 *239:50 0
4 *1108:C1 *256:451 5.35181e-06
5 *1108:C1 *364:23 4.66742e-05
6 *1108:A1 *1108:C1 8.40269e-05
7 *99:43 *1108:C1 2.23922e-05
8 *99:57 *1108:C1 0.000206123
*RES
1 *1106:X *1108:C1 12.39 
*END

*D_NET *123 0.00125137
*CONN
*I *1108:D1 I *D sky130_fd_sc_hd__a2111o_2
*I *1107:X O *D sky130_fd_sc_hd__xor2_1
*CAP
1 *1108:D1 0.000286616
2 *1107:X 0.000286616
3 *1108:D1 *1347:CLK 0.000293719
4 *1108:D1 *239:122 4.41363e-05
5 *1107:A *1108:D1 4.65607e-05
6 *98:14 *1108:D1 0.000293719
*RES
1 *1107:X *1108:D1 13.14 
*END

*D_NET *124 0.00632121
*CONN
*I *1109:D I *D sky130_fd_sc_hd__and4_1
*I *1115:D I *D sky130_fd_sc_hd__and4b_1
*I *1118:A3 I *D sky130_fd_sc_hd__a31o_1
*I *1273:A3 I *D sky130_fd_sc_hd__o31a_1
*I *1251:A2 I *D sky130_fd_sc_hd__a21oi_1
*I *1247:B I *D sky130_fd_sc_hd__nand2_1
*I *1123:A2 I *D sky130_fd_sc_hd__o21ai_1
*I *1108:X O *D sky130_fd_sc_hd__a2111o_2
*CAP
1 *1109:D 0.000102764
2 *1115:D 1.71429e-05
3 *1118:A3 1.19504e-05
4 *1273:A3 0.000152561
5 *1251:A2 8.28924e-05
6 *1247:B 0.000217211
7 *1123:A2 0
8 *1108:X 0.000284017
9 *124:81 0.000171217
10 *124:44 0.000549362
11 *124:38 0.000485155
12 *124:34 0.000645159
13 *124:14 0.000284453
14 *124:6 0.00078581
15 *1109:D *125:8 2.65814e-06
16 *1109:D *130:23 0.000387625
17 *1118:A3 *1124:B1 2.69153e-05
18 *1247:B *1124:D1 2.9296e-05
19 *1247:B *1247:A 2.85557e-05
20 *1247:B *213:14 2.74452e-07
21 *1251:A2 *1252:A1 2.08971e-05
22 *1273:A3 *1273:A1 1.08758e-05
23 *1273:A3 *1273:A2 9.43915e-05
24 *1273:A3 *1273:B1 2.62602e-05
25 *1273:A3 *137:20 6.90254e-05
26 *124:6 *1347:CLK 0.00013824
27 *124:6 *256:451 1.07348e-05
28 *124:14 *1124:D1 4.89295e-05
29 *124:14 *1247:A 4.63352e-05
30 *124:14 *256:459 9.08126e-05
31 *124:34 *1347:RESET_B 1.26623e-05
32 *124:38 *1118:B1 0
33 *124:38 *1124:A2 3.67779e-05
34 *124:38 *1124:B1 0.000112071
35 *124:38 *1124:C1 0.000131623
36 *124:38 *1125:A2 0
37 *124:38 *1248:A2 5.53549e-06
38 *124:38 *1276:B1 0.000113797
39 *124:44 *1124:C1 0.000130946
40 *124:44 *1252:A1 9.52499e-05
41 *124:44 *137:20 8.73389e-06
42 *124:81 *130:23 7.52099e-05
43 *1092:A1 *1247:B 6.11525e-06
44 *1109:B *1109:D 0.00025838
45 *1109:C *1109:D 2.80037e-05
46 *1251:A1 *1251:A2 4.93662e-06
47 *1251:A1 *1273:A3 6.90254e-05
48 *1347:D *124:6 1.33205e-05
49 *1347:D *124:34 2.20608e-05
50 *97:30 *124:38 1.14823e-05
51 *116:16 *124:44 0
52 *116:29 *1118:A3 4.77769e-05
53 *120:37 *1109:D 3.27294e-05
54 *120:37 *1115:D 1.38655e-06
55 *120:37 *124:34 0.000187941
56 *120:37 *124:81 9.39252e-05
*RES
1 *1108:X *124:6 5.155 
2 *124:6 *124:14 5.575 
3 *124:14 *1123:A2 1.6 
4 *124:14 *1247:B 4.66 
5 *124:6 *124:34 5.295 
6 *124:34 *124:38 5.675 
7 *124:38 *124:44 6.5 
8 *124:44 *1251:A2 2.92 
9 *124:44 *1273:A3 8.675 
10 *124:38 *1118:A3 4.05 
11 *124:34 *124:81 1.39125 
12 *124:81 *1115:D 1.96 
13 *124:81 *1109:D 5.86375 
*END

*D_NET *125 0.000929949
*CONN
*I *1256:B I *D sky130_fd_sc_hd__nand2_2
*I *1112:A_N I *D sky130_fd_sc_hd__and3b_1
*I *1109:X O *D sky130_fd_sc_hd__and4_1
*CAP
1 *1256:B 7.03876e-05
2 *1112:A_N 0.000164733
3 *1109:X 7.6328e-05
4 *125:8 0.000311449
5 *1112:A_N *127:60 0.000183036
6 *1112:A_N *139:27 0
7 *1112:A_N *373:21 0
8 *1256:B *127:60 0.000113797
9 *125:8 *130:23 7.55945e-06
10 *1109:D *125:8 2.65814e-06
11 *105:16 *1112:A_N 0
12 *105:16 *1256:B 0
13 *116:29 *1112:A_N 0
*RES
1 *1109:X *125:8 4.395 
2 *125:8 *1112:A_N 6.36 
3 *125:8 *1256:B 4.98 
*END

*D_NET *126 0.0310361
*CONN
*I *1219:S I *D sky130_fd_sc_hd__mux2_1
*I *1217:S I *D sky130_fd_sc_hd__mux2_1
*I *1213:S I *D sky130_fd_sc_hd__mux2_1
*I *1268:B1 I *D sky130_fd_sc_hd__a21oi_1
*I *1211:S I *D sky130_fd_sc_hd__mux2_1
*I *1215:S I *D sky130_fd_sc_hd__mux2_1
*I *1221:S I *D sky130_fd_sc_hd__mux2_1
*I *1227:S I *D sky130_fd_sc_hd__mux2_1
*I *1223:S I *D sky130_fd_sc_hd__mux2_1
*I *1233:S I *D sky130_fd_sc_hd__mux2_1
*I *1237:S I *D sky130_fd_sc_hd__mux2_1
*I *1235:S I *D sky130_fd_sc_hd__mux2_1
*I *1239:S I *D sky130_fd_sc_hd__mux2_1
*I *1225:S I *D sky130_fd_sc_hd__mux2_1
*I *1274:A I *D sky130_fd_sc_hd__or2_1
*I *1277:A I *D sky130_fd_sc_hd__or2_1
*I *1280:A I *D sky130_fd_sc_hd__or2_1
*I *1111:A I *D sky130_fd_sc_hd__inv_2
*I *1229:S I *D sky130_fd_sc_hd__mux2_1
*I *1231:S I *D sky130_fd_sc_hd__mux2_1
*I *1110:X O *D sky130_fd_sc_hd__buf_6
*CAP
1 *1219:S 0.00048178
2 *1217:S 6.44157e-05
3 *1213:S 0
4 *1268:B1 0.000534169
5 *1211:S 2.41569e-05
6 *1215:S 0
7 *1221:S 0
8 *1227:S 0
9 *1223:S 8.49829e-05
10 *1233:S 0.00027551
11 *1237:S 3.26341e-05
12 *1235:S 0.000412395
13 *1239:S 6.28629e-05
14 *1225:S 0.000138488
15 *1274:A 0
16 *1277:A 0
17 *1280:A 2.36112e-05
18 *1111:A 0.000705544
19 *1229:S 0
20 *1231:S 0
21 *1110:X 0.000306776
22 *126:233 0.00126378
23 *126:223 0.000880812
24 *126:216 0.000448704
25 *126:203 0.000460255
26 *126:199 0.000860309
27 *126:184 0.00064892
28 *126:180 0.000985018
29 *126:169 0.00106447
30 *126:130 0.00066781
31 *126:117 0.000566185
32 *126:115 0.0010546
33 *126:64 0.00183438
34 *126:48 0.00181498
35 *126:40 0.00107208
36 *126:36 0.000722332
37 *126:32 0.000741592
38 *126:25 0.00054451
39 *126:12 0.000522985
40 *126:10 0.000822956
41 *1111:A *1254:A1 5.74784e-06
42 *1111:A *1280:B 7.14241e-05
43 *1111:A *1333:CLK 0.000154931
44 *1111:A *127:10 4.77807e-05
45 *1111:A *130:23 1.5936e-05
46 *1111:A *245:69 0.000395877
47 *1211:S *1211:A0 4.82919e-05
48 *1217:S *1102:B 2.21074e-05
49 *1217:S *1217:A0 8.64599e-05
50 *1217:S *1217:A1 0.000121036
51 *1219:S *1132:A1 1.26044e-05
52 *1219:S *1205:A0 7.28391e-05
53 *1219:S *1207:A0 4.05363e-05
54 *1219:S *1220:A 7.03219e-05
55 *1219:S *256:150 3.1208e-05
56 *1219:S *325:88 0.000106434
57 *1223:S *1223:A0 8.64421e-05
58 *1223:S *1223:A1 6.51872e-05
59 *1233:S *1233:A0 0.000111285
60 *1233:S *1380:A 2.66586e-05
61 *1233:S *363:8 4.99619e-05
62 *1235:S *1160:A0 0.000177483
63 *1235:S *1235:A1 0.000291044
64 *1235:S *1330:RESET_B 0.000158311
65 *1235:S *1331:CLK 6.97118e-05
66 *1235:S *1364:A 8.33066e-06
67 *1235:S *1373:A 4.57032e-05
68 *1235:S *359:12 0.00019898
69 *1237:S *1237:A1 5.19006e-06
70 *1239:S *275:14 0.000160338
71 *1268:B1 *1211:A0 0.000189845
72 *1268:B1 *1268:A2 1.43521e-05
73 *1268:B1 *256:315 0
74 *1268:B1 *370:12 0.000199833
75 *1268:B1 *370:25 0
76 *1280:A *1281:A 2.68526e-05
77 *126:10 *1181:S 0.000358236
78 *126:10 *1182:A 0.000261024
79 *126:10 *162:55 0.000196039
80 *126:10 *256:627 3.56402e-05
81 *126:10 *256:639 0
82 *126:10 *326:76 7.97165e-05
83 *126:25 *1229:A1 0.00027964
84 *126:25 *1231:A0 4.82299e-05
85 *126:25 *1232:A 0.000122189
86 *126:25 *361:25 5.05521e-05
87 *126:32 *361:25 1.61831e-05
88 *126:36 *361:12 4.05363e-05
89 *126:40 *1275:A 4.60012e-05
90 *126:48 *1347:CLK 8.42161e-05
91 *126:48 *1425:A 0.000233561
92 *126:48 *376:10 0
93 *126:64 *1101:B1 0.000163199
94 *126:64 *1118:A2 0.000122331
95 *126:64 *1118:B1 8.65961e-05
96 *126:64 *1256:A 0.000201786
97 *126:64 *1281:A 6.88421e-05
98 *126:64 *1348:CLK 2.97522e-05
99 *126:64 *1425:A 5.83949e-05
100 *126:115 *1332:RESET_B 0
101 *126:115 *1380:A 0.000282321
102 *126:115 *244:10 0
103 *126:115 *244:36 0
104 *126:115 *361:25 0.000124839
105 *126:115 *363:12 0
106 *126:117 *1332:RESET_B 0
107 *126:117 *244:10 0
108 *126:130 *1364:A 0.00012655
109 *126:169 *162:55 0.000157418
110 *126:169 *256:170 0
111 *126:169 *256:184 0
112 *126:180 *1325:CLK 0
113 *126:180 *1374:A 3.89366e-05
114 *126:180 *1391:A 0.000116165
115 *126:180 *243:62 0
116 *126:180 *256:168 0
117 *126:180 *256:170 0
118 *126:180 *325:88 9.83856e-05
119 *126:184 *1227:A1 4.8962e-05
120 *126:199 *1205:A0 0.000233597
121 *126:199 *1217:A1 0.000186439
122 *126:199 *1218:A 0.000272903
123 *126:199 *1227:A0 0.000246166
124 *126:199 *1227:A1 4.40028e-05
125 *126:199 *246:26 0.00013475
126 *126:203 *1102:B 0
127 *126:203 *1221:A1 9.50342e-06
128 *126:203 *246:26 0
129 *126:203 *256:263 0.000221373
130 *126:203 *256:273 0.000153801
131 *126:216 *1134:A0 3.24288e-05
132 *126:216 *1215:A0 8.46818e-05
133 *126:216 *1215:A1 0.000119873
134 *126:216 *1221:A1 0.000109009
135 *126:216 *1387:A 0
136 *126:216 *1392:A 0
137 *126:216 *246:45 0
138 *126:216 *256:273 0.000212505
139 *126:216 *256:280 0.000301756
140 *126:223 *1215:A0 0.00042298
141 *126:223 *1318:CLK 2.10905e-05
142 *126:233 *1213:A0 7.45766e-05
143 *126:233 *1318:CLK 6.35235e-05
144 *126:233 *256:315 0.000116853
145 *126:233 *370:12 0
146 *1108:B1 *126:48 0.000115464
147 *1318:D *126:233 9.47017e-05
148 *1324:D *126:169 4.84138e-05
149 *1331:D *1235:S 0
150 *30:10 *1111:A 0
151 *30:12 *1111:A 0
152 *98:18 *126:48 0
153 *99:57 *126:40 0.000119251
154 *102:38 *126:48 0.000707151
*RES
1 *1110:X *126:10 12.66 
2 *126:10 *126:12 2 
3 *126:12 *1231:S 1.6 
4 *126:12 *126:25 9.555 
5 *126:25 *1229:S 1.6 
6 *126:25 *126:32 0.45 
7 *126:32 *126:36 5.675 
8 *126:36 *126:40 7.625 
9 *126:40 *126:48 18.235 
10 *126:48 *126:64 17.885 
11 *126:64 *1111:A 15.87 
12 *126:64 *1280:A 4.05 
13 *126:48 *1277:A 1.6 
14 *126:40 *1274:A 1.6 
15 *126:36 *1225:S 6 
16 *126:32 *126:115 11.9 
17 *126:115 *126:117 4.185 
18 *126:117 *1239:S 5.085 
19 *126:117 *126:130 4.125 
20 *126:130 *1235:S 13.35 
21 *126:130 *1237:S 4.215 
22 *126:115 *1233:S 8.22 
23 *126:10 *126:169 8.82 
24 *126:169 *1223:S 5.43 
25 *126:169 *126:180 8.265 
26 *126:180 *126:184 2.795 
27 *126:184 *1227:S 1.6 
28 *126:184 *126:199 16.765 
29 *126:199 *126:203 6.44 
30 *126:203 *1221:S 3.6 
31 *126:203 *126:216 9.455 
32 *126:216 *1215:S 1.6 
33 *126:216 *126:223 4.245 
34 *126:223 *126:233 13.345 
35 *126:233 *1211:S 2.05 
36 *126:233 *1268:B1 15.23 
37 *126:223 *1213:S 1.6 
38 *126:199 *1217:S 3.445 
39 *126:180 *1219:S 11.505 
*END

*D_NET *127 0.00612122
*CONN
*I *1259:A I *D sky130_fd_sc_hd__and3_1
*I *1265:C1 I *D sky130_fd_sc_hd__o211a_1
*I *1112:C I *D sky130_fd_sc_hd__and3b_1
*I *1125:B1 I *D sky130_fd_sc_hd__o21ai_1
*I *1272:A I *D sky130_fd_sc_hd__nand2_1
*I *1270:A I *D sky130_fd_sc_hd__nand2_1
*I *1111:Y O *D sky130_fd_sc_hd__inv_2
*CAP
1 *1259:A 0
2 *1265:C1 0.00024671
3 *1112:C 8.58382e-05
4 *1125:B1 0.000114801
5 *1272:A 6.64583e-05
6 *1270:A 0.000169511
7 *1111:Y 0
8 *127:60 0.000651328
9 *127:47 0.000604471
10 *127:34 0.000340097
11 *127:10 0.000555186
12 *127:4 0.000430497
13 *1125:B1 *1114:A 1.08758e-05
14 *1125:B1 *1125:A2 8.64599e-05
15 *1125:B1 *1252:A1 8.34281e-06
16 *1125:B1 *129:6 8.52972e-05
17 *1125:B1 *129:14 0.00012398
18 *1265:C1 *1259:B 1.34618e-05
19 *1265:C1 *1259:C 0.000121039
20 *1265:C1 *1265:A2 5.87002e-05
21 *1265:C1 *1265:B1 4.66108e-05
22 *1265:C1 *139:61 0.00015356
23 *1265:C1 *219:19 1.82111e-05
24 *1265:C1 *219:28 8.54612e-05
25 *1265:C1 *219:43 2.25226e-05
26 *1270:A *1269:A1 0
27 *1270:A *1269:B1 0
28 *1270:A *1344:RESET_B 4.43871e-06
29 *1270:A *1405:A 3.67779e-05
30 *1270:A *256:480 0.000110315
31 *1270:A *375:12 2.11084e-05
32 *1272:A *1272:B 0.000235941
33 *1272:A *1405:A 6.27529e-05
34 *127:10 *129:16 0
35 *127:10 *256:480 0.000221194
36 *127:34 *1114:A 3.97106e-05
37 *127:34 *256:480 0.000175219
38 *127:47 *1114:A 0.000129834
39 *127:47 *256:480 0.000136874
40 *127:60 *1114:A 6.81892e-05
41 *127:60 *1256:A 0.000140771
42 *127:60 *1281:A 0
43 *127:60 *1348:CLK 0
44 *127:60 *219:8 0
45 *127:60 *219:19 0
46 *127:60 *247:21 0
47 *1111:A *127:10 4.77807e-05
48 *1112:A_N *127:60 0.000183036
49 *1256:B *127:60 0.000113797
50 *1258:B1 *1265:C1 7.5589e-05
51 *1258:B1 *127:60 7.16635e-05
52 *97:30 *1112:C 0.00012182
53 *99:14 *1265:C1 2.49909e-05
54 *105:16 *127:60 0
55 *116:29 *127:47 0
56 *116:29 *127:60 0
*RES
1 *1111:Y *127:4 1.6 
2 *127:4 *127:10 7.835 
3 *127:10 *1270:A 7.14 
4 *127:10 *1272:A 5.775 
5 *127:4 *127:34 4.145 
6 *127:34 *1125:B1 6.39 
7 *127:34 *127:47 2.91 
8 *127:47 *1112:C 4.74 
9 *127:47 *127:60 10.52 
10 *127:60 *1265:C1 11.63 
11 *127:60 *1259:A 1.6 
*END

*D_NET *128 0.000939254
*CONN
*I *1113:A I *D sky130_fd_sc_hd__buf_2
*I *1112:X O *D sky130_fd_sc_hd__and3b_1
*CAP
1 *1113:A 0.000319099
2 *1112:X 0.000319099
3 *1113:A *1333:CLK 0.000196048
4 *1113:A *373:21 8.46717e-05
5 *97:30 *1113:A 2.03356e-05
*RES
1 *1112:X *1113:A 12.405 
*END

*D_NET *129 0.00442707
*CONN
*I *1125:A1 I *D sky130_fd_sc_hd__o21ai_1
*I *1276:A1 I *D sky130_fd_sc_hd__o31a_1
*I *1273:A1 I *D sky130_fd_sc_hd__o31a_1
*I *1271:A1 I *D sky130_fd_sc_hd__o21ai_1
*I *1269:A1 I *D sky130_fd_sc_hd__o21ai_1
*I *1114:Y O *D sky130_fd_sc_hd__inv_2
*CAP
1 *1125:A1 0
2 *1276:A1 6.38695e-05
3 *1273:A1 2.53504e-05
4 *1271:A1 1.41765e-05
5 *1269:A1 0.000253479
6 *1114:Y 1.66134e-05
7 *129:52 0.000754294
8 *129:16 0.000533204
9 *129:14 0.00106749
10 *129:6 0.000153484
11 *1269:A1 *1121:A2 2.79099e-05
12 *1269:A1 *1248:A2 0
13 *1269:A1 *1405:A 0
14 *1269:A1 *375:12 8.65905e-05
15 *1271:A1 *1249:A1 7.16048e-06
16 *1271:A1 *1271:A2 9.02865e-06
17 *1271:A1 *135:15 2.51977e-05
18 *1273:A1 *1273:B1 2.49909e-05
19 *1276:A1 *256:459 0.000109479
20 *1276:A1 *256:465 1.79483e-05
21 *1276:A1 *355:48 0.000153269
22 *129:6 *1252:A1 4.22944e-05
23 *129:14 *1125:A2 6.63221e-05
24 *129:14 *1252:A1 0.00016875
25 *129:16 *1248:A2 0
26 *129:52 *1274:B 7.01359e-05
27 *129:52 *355:20 0.00027687
28 *129:52 *355:48 3.12537e-05
29 *1100:B1 *129:52 3.83194e-05
30 *1125:B1 *129:6 8.52972e-05
31 *1125:B1 *129:14 0.00012398
32 *1270:A *1269:A1 0
33 *1273:A3 *1273:A1 1.08758e-05
34 *108:16 *129:52 4.77769e-05
35 *108:27 *129:52 0.000121659
36 *127:10 *129:16 0
*RES
1 *1114:Y *129:6 2.395 
2 *129:6 *129:14 5.66 
3 *129:14 *129:16 4.44 
4 *129:16 *1269:A1 7.71 
5 *129:16 *1271:A1 3.98625 
6 *129:14 *129:52 13.645 
7 *129:52 *1273:A1 4.05 
8 *129:52 *1276:A1 5.49 
9 *129:6 *1125:A1 1.6 
*END

*D_NET *130 0.00477794
*CONN
*I *1254:A1 I *D sky130_fd_sc_hd__mux2_1
*I *1279:A2 I *D sky130_fd_sc_hd__a21oi_1
*I *1124:A2 I *D sky130_fd_sc_hd__o2111a_2
*I *1115:X O *D sky130_fd_sc_hd__and4b_1
*CAP
1 *1254:A1 0.000682323
2 *1279:A2 9.78891e-05
3 *1124:A2 0.000151331
4 *1115:X 0
5 *130:23 0.00145485
6 *130:4 0.000825965
7 *1124:A2 *1124:D1 6.52265e-05
8 *1124:A2 *1125:A2 4.43871e-06
9 *1124:A2 *1276:B1 4.82863e-05
10 *1124:A2 *139:27 3.23391e-05
11 *1254:A1 *1114:A 0
12 *1254:A1 *1254:A0 4.89395e-05
13 *1254:A1 *1255:A 4.82299e-05
14 *1254:A1 *1333:CLK 0.000148041
15 *1254:A1 *245:52 0
16 *1254:A1 *245:69 0.000366041
17 *1254:A1 *373:10 0.000113572
18 *1279:A2 *373:10 9.09788e-06
19 *130:23 *1280:B 6.72143e-05
20 *1109:D *130:23 0.000387625
21 *1111:A *1254:A1 5.74784e-06
22 *1111:A *130:23 1.5936e-05
23 *1254:S *1254:A1 8.53011e-05
24 *124:38 *1124:A2 3.67779e-05
25 *124:81 *130:23 7.52099e-05
26 *125:8 *130:23 7.55945e-06
*RES
1 *1115:X *130:4 1.6 
2 *130:4 *1124:A2 7.955 
3 *130:4 *130:23 10.6025 
4 *130:23 *1279:A2 4.8825 
5 *130:23 *1254:A1 16.8375 
*END

*D_NET *131 0.00189976
*CONN
*I *1433:A I *D sky130_fd_sc_hd__clkbuf_1
*I *1116:Y O *D sky130_fd_sc_hd__a2111oi_1
*CAP
1 *1433:A 0.000453519
2 *1116:Y 0.000453519
3 *1433:A *1101:A2 1.30872e-05
4 *1433:A *1278:A 2.75538e-05
5 *1433:A *1347:CLK 7.05395e-05
6 *1433:A *1425:A 0.00013521
7 *1433:A *256:451 0.000121019
8 *1433:A *355:48 0
9 *1104:B1 *1433:A 3.6227e-05
10 *1116:C1 *1433:A 0.000158543
11 *1116:D1 *1433:A 0.000158543
12 *1347:D *1433:A 0.000150292
13 *98:14 *1433:A 0
14 *119:20 *1433:A 2.50779e-05
15 *120:18 *1433:A 9.66249e-05
*RES
1 *1116:Y *1433:A 17.94 
*END

*D_NET *132 0.00127848
*CONN
*I *1118:B1 I *D sky130_fd_sc_hd__a31o_1
*I *1117:Y O *D sky130_fd_sc_hd__inv_2
*CAP
1 *1118:B1 0.000263331
2 *1117:Y 0.000263331
3 *1118:B1 *1118:A2 0.000456668
4 *1118:B1 *1124:B1 3.97723e-05
5 *1118:B1 *1276:B1 6.8665e-05
6 *1118:B1 *137:37 6.60257e-06
7 *1118:B1 *377:25 2.25075e-05
8 *97:30 *1118:B1 7.10077e-05
9 *124:38 *1118:B1 0
10 *126:64 *1118:B1 8.65961e-05
*RES
1 *1117:Y *1118:B1 13.71 
*END

*D_NET *133 0.000426783
*CONN
*I *1124:B1 I *D sky130_fd_sc_hd__o2111a_2
*I *1118:X O *D sky130_fd_sc_hd__a31o_1
*CAP
1 *1124:B1 0.000115737
2 *1118:X 0.000115737
3 *1118:A3 *1124:B1 2.69153e-05
4 *1118:B1 *1124:B1 3.97723e-05
5 *97:30 *1124:B1 4.55864e-06
6 *116:29 *1124:B1 1.19928e-05
7 *124:38 *1124:B1 0.000112071
*RES
1 *1118:X *1124:B1 9.375 
*END

*D_NET *134 0.00207643
*CONN
*I *1269:A2 I *D sky130_fd_sc_hd__o21ai_1
*I *1121:A2 I *D sky130_fd_sc_hd__a22oi_1
*I *1119:Y O *D sky130_fd_sc_hd__nand3_1
*CAP
1 *1269:A2 0
2 *1121:A2 0.000210755
3 *1119:Y 0.000592485
4 *134:12 0.000803239
5 *1121:A2 *1121:A1 0.000228508
6 *1121:A2 *1124:C1 4.9968e-05
7 *1121:A2 *1269:B1 0
8 *1121:A2 *1270:B 1.37328e-05
9 *1121:A2 *135:15 1.86443e-05
10 *1121:A2 *375:12 3.70009e-05
11 *134:12 *1121:A1 0
12 *134:12 *1269:B1 7.55391e-05
13 *134:12 *1344:RESET_B 0
14 *134:12 *374:12 0
15 *1119:A *134:12 0
16 *1248:A1 *1121:A2 1.86443e-05
17 *1269:A1 *1121:A2 2.79099e-05
18 *1344:D *134:12 0
*RES
1 *1119:Y *134:12 14.6 
2 *134:12 *1121:A2 10.28 
3 *134:12 *1269:A2 1.6 
*END

*D_NET *135 0.000861161
*CONN
*I *1271:A2 I *D sky130_fd_sc_hd__o21ai_1
*I *1248:B1 I *D sky130_fd_sc_hd__o21ai_1
*I *1121:B1 I *D sky130_fd_sc_hd__a22oi_1
*I *1120:Y O *D sky130_fd_sc_hd__nand3b_1
*CAP
1 *1271:A2 4.4894e-05
2 *1248:B1 0
3 *1121:B1 0
4 *1120:Y 6.45411e-05
5 *135:15 0.000227679
6 *135:6 0.000247326
7 *1271:A2 *1249:A1 2.44047e-05
8 *135:6 *1095:B1 4.66108e-05
9 *135:15 *1248:A2 1.47347e-05
10 *135:15 *1249:A1 1.16578e-05
11 *1121:A2 *135:15 1.86443e-05
12 *1248:A1 *135:6 4.47209e-05
13 *1248:A1 *135:15 8.17212e-05
14 *1271:A1 *1271:A2 9.02865e-06
15 *1271:A1 *135:15 2.51977e-05
*RES
1 *1120:Y *135:6 2.74 
2 *135:6 *1121:B1 1.6 
3 *135:6 *135:15 3.135 
4 *135:15 *1248:B1 1.6 
5 *135:15 *1271:A2 2.395 
*END

*D_NET *136 0.0024297
*CONN
*I *1124:C1 I *D sky130_fd_sc_hd__o2111a_2
*I *1121:Y O *D sky130_fd_sc_hd__a22oi_1
*CAP
1 *1124:C1 0.000459107
2 *1121:Y 0.000459107
3 *1124:C1 *1248:A2 0.000860336
4 *1124:C1 *137:14 0.000143923
5 *1121:A2 *1124:C1 4.9968e-05
6 *1248:A1 *1124:C1 0.000194694
7 *115:40 *1124:C1 0
8 *124:38 *1124:C1 0.000131623
9 *124:44 *1124:C1 0.000130946
*RES
1 *1121:Y *1124:C1 19.335 
*END

*D_NET *137 0.00258638
*CONN
*I *1251:B1 I *D sky130_fd_sc_hd__a21oi_1
*I *1276:A2 I *D sky130_fd_sc_hd__o31a_1
*I *1123:A1 I *D sky130_fd_sc_hd__o21ai_1
*I *1273:A2 I *D sky130_fd_sc_hd__o31a_1
*I *1122:X O *D sky130_fd_sc_hd__a21o_1
*CAP
1 *1251:B1 0
2 *1276:A2 1.32722e-05
3 *1123:A1 0.000113426
4 *1273:A2 3.5765e-05
5 *1122:X 0.000317376
6 *137:37 0.000334576
7 *137:20 0.00033313
8 *137:14 0.000406864
9 *1123:A1 *1124:D1 4.60123e-05
10 *1123:A1 *1276:A3 5.83121e-06
11 *1123:A1 *1277:B 9.76407e-06
12 *1123:A1 *213:14 1.08758e-05
13 *1273:A2 *1273:B1 1.42588e-05
14 *1276:A2 *1276:B1 4.87465e-06
15 *137:14 *1252:A1 0.000196699
16 *137:20 *1252:A1 1.08758e-05
17 *137:37 *1118:A2 5.64075e-05
18 *137:37 *1276:A3 1.48554e-05
19 *137:37 *1276:B1 1.4389e-05
20 *1118:B1 *137:37 6.60257e-06
21 *1122:B1 *137:14 6.72833e-06
22 *1124:C1 *137:14 0.000143923
23 *1251:A1 *137:20 6.00545e-05
24 *1251:A1 *137:37 7.26146e-05
25 *1273:A3 *1273:A2 9.43915e-05
26 *1273:A3 *137:20 6.90254e-05
27 *97:30 *137:37 0
28 *116:16 *137:20 0.00017709
29 *116:16 *137:37 7.9642e-06
30 *124:44 *137:20 8.73389e-06
*RES
1 *1122:X *137:14 11.39 
2 *137:14 *137:20 4.595 
3 *137:20 *1273:A2 4.395 
4 *137:20 *137:37 5.39 
5 *137:37 *1123:A1 3.445 
6 *137:37 *1276:A2 1.96 
7 *137:14 *1251:B1 1.6 
*END

*D_NET *138 0.00156828
*CONN
*I *1124:D1 I *D sky130_fd_sc_hd__o2111a_2
*I *1123:Y O *D sky130_fd_sc_hd__o21ai_1
*CAP
1 *1124:D1 0.000360934
2 *1123:Y 0.000360934
3 *1124:D1 *1118:A2 1.7635e-05
4 *1124:D1 *1247:A 1.08758e-05
5 *1124:D1 *1248:A2 0.000105932
6 *1124:D1 *1276:A3 9.5799e-06
7 *1124:D1 *1276:B1 0.000193801
8 *1124:D1 *1277:B 2.49909e-05
9 *1124:D1 *213:14 0.000196443
10 *1124:D1 *256:459 1.87328e-05
11 *1124:D1 *355:48 8.41703e-06
12 *1123:A1 *1124:D1 4.60123e-05
13 *1124:A2 *1124:D1 6.52265e-05
14 *1247:B *1124:D1 2.9296e-05
15 *97:30 *1124:D1 7.05371e-05
16 *124:14 *1124:D1 4.89295e-05
*RES
1 *1123:Y *1124:D1 13.7626 
*END

*D_NET *139 0.0048062
*CONN
*I *1258:A1 I *D sky130_fd_sc_hd__o21ai_1
*I *1264:B1 I *D sky130_fd_sc_hd__a211o_1
*I *1266:A1 I *D sky130_fd_sc_hd__o31ai_1
*I *1267:B I *D sky130_fd_sc_hd__or4_1
*I *1261:A I *D sky130_fd_sc_hd__nor2_1
*I *1257:B I *D sky130_fd_sc_hd__or3_1
*I *1125:A2 I *D sky130_fd_sc_hd__o21ai_1
*I *1124:X O *D sky130_fd_sc_hd__o2111a_2
*CAP
1 *1258:A1 0
2 *1264:B1 0.000176989
3 *1266:A1 0.000107835
4 *1267:B 0
5 *1261:A 0
6 *1257:B 7.17084e-05
7 *1125:A2 0.000316981
8 *1124:X 0
9 *139:61 0.000276813
10 *139:46 0.000223205
11 *139:42 0.000302807
12 *139:31 0.000260076
13 *139:27 0.00054394
14 *139:6 0.000744146
15 *1125:A2 *1248:A2 0.00014281
16 *1125:A2 *1252:A1 3.60168e-05
17 *1125:A2 *256:480 0
18 *1264:B1 *1264:A2 5.79947e-05
19 *1264:B1 *1264:C1 4.77769e-05
20 *1266:A1 *1342:CLK 0
21 *139:27 *1101:B1 0
22 *139:27 *1276:B1 0
23 *139:27 *247:8 9.66106e-05
24 *139:27 *377:25 0
25 *139:46 *1261:B 1.08758e-05
26 *139:46 *1264:A2 2.49909e-05
27 *139:61 *1261:B 3.69049e-05
28 *139:61 *1265:A2 5.83121e-06
29 *139:61 *219:43 0.000133453
30 *139:61 *219:58 0.00011229
31 *1112:A_N *139:27 0
32 *1124:A2 *1125:A2 4.43871e-06
33 *1124:A2 *139:27 3.23391e-05
34 *1125:B1 *1125:A2 8.64599e-05
35 *1258:B1 *139:27 0
36 *1265:C1 *139:61 0.00015356
37 *1343:D *1125:A2 8.64599e-05
38 *98:72 *1257:B 3.69837e-05
39 *102:28 *1264:B1 2.69153e-05
40 *102:28 *1266:A1 0
41 *105:16 *1264:B1 2.87181e-05
42 *105:16 *139:27 0
43 *105:16 *139:31 0.000222481
44 *105:16 *139:42 0.000135382
45 *116:29 *1125:A2 0.000133985
46 *116:29 *139:27 6.20952e-05
47 *124:38 *1125:A2 0
48 *129:14 *1125:A2 6.63221e-05
*RES
1 *1124:X *139:6 3.6 
2 *139:6 *1125:A2 10.665 
3 *139:6 *139:27 9.305 
4 *139:27 *139:31 4.655 
5 *139:31 *1257:B 4.395 
6 *139:31 *139:42 1.635 
7 *139:42 *139:46 2.795 
8 *139:46 *1261:A 1.6 
9 *139:46 *139:61 6.425 
10 *139:61 *1267:B 3.6 
11 *139:61 *1266:A1 5.025 
12 *139:42 *1264:B1 6.84 
13 *139:27 *1258:A1 1.6 
*END

*D_NET *140 0.00285628
*CONN
*I *1130:A1 I *D sky130_fd_sc_hd__a22o_1
*I *1131:A1 I *D sky130_fd_sc_hd__o221a_2
*I *1126:Y O *D sky130_fd_sc_hd__inv_2
*CAP
1 *1130:A1 7.7993e-05
2 *1131:A1 0.000344405
3 *1126:Y 0.000509464
4 *140:14 0.000931863
5 *1130:A1 *1130:A2 4.60394e-05
6 *1130:A1 *1130:B1 1.72945e-05
7 *1131:A1 *1127:A 8.35106e-05
8 *1131:A1 *1129:C1 9.09788e-06
9 *1131:A1 *1131:A2 3.21517e-05
10 *1131:A1 *1131:B2 7.15381e-05
11 *1131:A1 *1397:A 7.98749e-06
12 *1131:A1 *352:6 0.000121643
13 *140:14 *1126:A 8.8266e-05
14 *140:14 *1130:A2 0.000236918
15 *140:14 *254:10 0.000278111
16 *140:14 *254:12 0
*RES
1 *1126:Y *140:14 14.345 
2 *140:14 *1131:A1 14.445 
3 *140:14 *1130:A1 2.755 
*END

*D_NET *141 0.00235707
*CONN
*I *1130:B2 I *D sky130_fd_sc_hd__a22o_1
*I *1129:A2 I *D sky130_fd_sc_hd__o211a_1
*I *1127:Y O *D sky130_fd_sc_hd__inv_2
*CAP
1 *1130:B2 0.000215297
2 *1129:A2 0.000380001
3 *1127:Y 0.000141478
4 *141:8 0.000736776
5 *1129:A2 *1128:A 9.183e-05
6 *1129:A2 *1129:B1 0.000193461
7 *1129:A2 *1129:C1 4.55514e-05
8 *1129:A2 *1131:B1 9.29619e-05
9 *1129:A2 *1200:A1 0.000239704
10 *1129:A2 *1312:CLK 0.000158536
11 *1312:D *1129:A2 6.14746e-05
*RES
1 *1127:Y *141:8 5.085 
2 *141:8 *1129:A2 13.35 
3 *141:8 *1130:B2 6.96 
*END

*D_NET *142 0.00105739
*CONN
*I *1129:C1 I *D sky130_fd_sc_hd__o211a_1
*I *1128:Y O *D sky130_fd_sc_hd__inv_2
*CAP
1 *1129:C1 0.000310047
2 *1128:Y 0.000310047
3 *1129:C1 *1127:A 5.19006e-06
4 *1129:C1 *1131:B1 1.14192e-05
5 *1129:C1 *1131:B2 0.000122815
6 *1129:C1 *1201:A 6.34342e-05
7 *1129:C1 *1202:S 5.83121e-06
8 *1129:C1 *1312:CLK 1.91597e-05
9 *1129:C1 *145:39 8.84455e-05
10 *1129:C1 *253:12 3.52742e-05
11 *1129:A2 *1129:C1 4.55514e-05
12 *1131:A1 *1129:C1 9.09788e-06
13 *1312:D *1129:C1 3.10733e-05
*RES
1 *1128:Y *1129:C1 12.84 
*END

*D_NET *143 0.000804318
*CONN
*I *1131:B1 I *D sky130_fd_sc_hd__o221a_2
*I *1129:X O *D sky130_fd_sc_hd__o211a_1
*CAP
1 *1131:B1 0.000288532
2 *1129:X 0.000288532
3 *1131:B1 *1131:A2 4.28112e-06
4 *1131:B1 *1202:S 1.12643e-05
5 *1131:B1 *253:12 3.54721e-05
6 *1131:B1 *352:6 6.03947e-06
7 *1129:A2 *1131:B1 9.29619e-05
8 *1129:C1 *1131:B1 1.14192e-05
9 *1204:A2 *1131:B1 5.31158e-06
10 *93:168 *1131:B1 6.05046e-05
*RES
1 *1129:X *1131:B1 11.2087 
*END

*D_NET *144 0.000853642
*CONN
*I *1131:B2 I *D sky130_fd_sc_hd__o221a_2
*I *1130:X O *D sky130_fd_sc_hd__a22o_1
*CAP
1 *1131:B2 0.000111398
2 *1130:X 0.000111398
3 *1131:B2 *1127:A 3.63576e-05
4 *1131:B2 *1202:S 7.54068e-05
5 *1131:B2 *1397:A 9.17697e-05
6 *1131:B2 *352:6 0.000232959
7 *1129:C1 *1131:B2 0.000122815
8 *1131:A1 *1131:B2 7.15381e-05
*RES
1 *1130:X *1131:B2 11.1 
*END

*D_NET *145 0.00649608
*CONN
*I *1134:S I *D sky130_fd_sc_hd__mux2_1
*I *1132:S I *D sky130_fd_sc_hd__mux2_1
*I *1136:S I *D sky130_fd_sc_hd__mux2_1
*I *1200:S I *D sky130_fd_sc_hd__mux2_1
*I *1202:S I *D sky130_fd_sc_hd__mux2_1
*I *1131:X O *D sky130_fd_sc_hd__o221a_2
*CAP
1 *1134:S 8.68897e-06
2 *1132:S 0.000363606
3 *1136:S 0.000482558
4 *1200:S 0
5 *1202:S 0.000236729
6 *1131:X 0
7 *145:67 0.00115185
8 *145:41 0.0005184
9 *145:39 0.00116624
10 *145:4 0.00058757
11 *1132:S *1132:A0 1.52352e-05
12 *1132:S *1132:A1 0.000124471
13 *1132:S *1133:A 5.4393e-05
14 *1134:S *1384:A 4.77757e-05
15 *1134:S *243:112 3.68999e-05
16 *1136:S *1200:A0 9.29586e-05
17 *1136:S *1383:A 9.12494e-06
18 *1202:S *1129:A1 1.65192e-05
19 *1202:S *1130:B1 4.82863e-05
20 *1202:S *1131:A2 8.16453e-05
21 *1202:S *1202:A0 4.82863e-05
22 *1202:S *253:12 0.000121032
23 *1202:S *254:12 4.18603e-06
24 *1202:S *352:6 2.36092e-05
25 *145:39 *1128:A 2.30184e-05
26 *145:39 *1200:A0 3.50562e-05
27 *145:39 *1200:A1 6.88421e-05
28 *145:39 *1201:A 8.06364e-05
29 *145:67 *1200:A0 5.84216e-05
30 *145:67 *1290:CLK 9.32375e-05
31 *145:67 *1384:A 0.000122817
32 *145:67 *243:112 0.000479607
33 *1129:C1 *1202:S 5.83121e-06
34 *1129:C1 *145:39 8.84455e-05
35 *1131:B1 *1202:S 1.12643e-05
36 *1131:B2 *1202:S 7.54068e-05
37 *1204:A2 *1202:S 0.000113428
38 *1289:D *1132:S 0
*RES
1 *1131:X *145:4 1.6 
2 *145:4 *1202:S 11.195 
3 *145:4 *145:39 9.745 
4 *145:39 *145:41 0.615 
5 *145:41 *1200:S 1.6 
6 *145:41 *1136:S 14.075 
7 *145:39 *145:67 11.865 
8 *145:67 *1132:S 11.48 
9 *145:67 *1134:S 2.05 
*END

*D_NET *146 0.000328338
*CONN
*I *1133:A I *D sky130_fd_sc_hd__clkbuf_1
*I *1132:X O *D sky130_fd_sc_hd__mux2_1
*CAP
1 *1133:A 8.22572e-05
2 *1132:X 8.22572e-05
3 *1133:A *1132:A1 3.00381e-05
4 *1133:A *256:537 7.93923e-05
5 *1132:S *1133:A 5.4393e-05
*RES
1 *1132:X *1133:A 9.285 
*END

*D_NET *147 0.00107678
*CONN
*I *1135:A I *D sky130_fd_sc_hd__clkbuf_1
*I *1134:X O *D sky130_fd_sc_hd__mux2_1
*CAP
1 *1135:A 0.000147286
2 *1134:X 0.000147286
3 *1135:A *1132:A0 0.000160211
4 *1135:A *1134:A1 0.000311071
5 *1289:D *1135:A 0.000310927
*RES
1 *1134:X *1135:A 12.36 
*END

*D_NET *148 0.000550049
*CONN
*I *1137:A I *D sky130_fd_sc_hd__clkbuf_1
*I *1136:X O *D sky130_fd_sc_hd__mux2_1
*CAP
1 *1137:A 0.0001514
2 *1136:X 0.0001514
3 *1137:A *1136:A0 6.90254e-05
4 *1137:A *1312:RESET_B 5.3468e-05
5 *1137:A *256:537 3.75882e-06
6 *1137:A *256:551 2.87133e-05
7 *1290:D *1137:A 9.22826e-05
*RES
1 *1136:X *1137:A 10.875 
*END

*D_NET *149 0.000949956
*CONN
*I *1143:A1 I *D sky130_fd_sc_hd__o221a_2
*I *1142:A1 I *D sky130_fd_sc_hd__a22o_1
*I *1138:Y O *D sky130_fd_sc_hd__inv_2
*CAP
1 *1143:A1 3.43921e-05
2 *1142:A1 0.000324886
3 *1138:Y 5.38739e-05
4 *149:10 0.000413152
5 *1142:A1 *1143:A2 7.57142e-06
6 *1142:A1 *1143:B1 6.03947e-06
7 *1142:A1 *1143:B2 3.68816e-05
8 *149:10 *256:37 2.41307e-05
9 *1143:C1 *1142:A1 4.90291e-05
*RES
1 *1138:Y *149:10 6.47 
2 *149:10 *1142:A1 5.515 
3 *149:10 *1143:A1 2.215 
*END

*D_NET *150 0.00119738
*CONN
*I *1141:A1 I *D sky130_fd_sc_hd__o211a_1
*I *1142:B1 I *D sky130_fd_sc_hd__a22o_1
*I *1139:Y O *D sky130_fd_sc_hd__inv_2
*CAP
1 *1141:A1 1.2995e-05
2 *1142:B1 0.000221175
3 *1139:Y 0.00010793
4 *150:6 0.000342099
5 *1141:A1 *1141:A2 9.12671e-06
6 *1141:A1 *259:10 7.41437e-06
7 *1142:B1 *1146:A1 1.74876e-05
8 *1142:B1 *259:10 0.000131329
9 *1142:B1 *270:14 8.66104e-05
10 *1142:B1 *281:27 5.31158e-06
11 *150:6 *1143:B1 2.69153e-05
12 *150:6 *1146:A1 0.000149894
13 *150:6 *154:27 1.08758e-05
14 *93:53 *1142:B1 6.28503e-05
15 *93:66 *1142:B1 5.36975e-06
*RES
1 *1139:Y *150:6 4.12 
2 *150:6 *1142:B1 9.89 
3 *150:6 *1141:A1 1.96 
*END

*D_NET *151 0.000336194
*CONN
*I *1141:C1 I *D sky130_fd_sc_hd__o211a_1
*I *1140:Y O *D sky130_fd_sc_hd__inv_2
*CAP
1 *1141:C1 0.000103592
2 *1140:Y 0.000103592
3 *1141:C1 *270:14 1.64141e-05
4 *93:53 *1141:C1 0.000112595
*RES
1 *1140:Y *1141:C1 9.03 
*END

*D_NET *152 0.00041671
*CONN
*I *1143:B1 I *D sky130_fd_sc_hd__o221a_2
*I *1141:X O *D sky130_fd_sc_hd__o211a_1
*CAP
1 *1143:B1 0.000120483
2 *1141:X 0.000120483
3 *1143:B1 *1143:B2 1.12643e-05
4 *1143:B1 *256:37 0.000131525
5 *1142:A1 *1143:B1 6.03947e-06
6 *150:6 *1143:B1 2.69153e-05
*RES
1 *1141:X *1143:B1 9.39375 
*END

*D_NET *153 0.000326098
*CONN
*I *1143:B2 I *D sky130_fd_sc_hd__o221a_2
*I *1142:X O *D sky130_fd_sc_hd__a22o_1
*CAP
1 *1143:B2 5.94721e-05
2 *1142:X 5.94721e-05
3 *1143:B2 *1143:A2 0.000101107
4 *1142:A1 *1143:B2 3.68816e-05
5 *1143:B1 *1143:B2 1.12643e-05
6 *1143:C1 *1143:B2 5.79005e-05
*RES
1 *1142:X *1143:B2 5.045 
*END

*D_NET *154 0.00550061
*CONN
*I *1164:S I *D sky130_fd_sc_hd__mux2_1
*I *1162:S I *D sky130_fd_sc_hd__mux2_1
*I *1160:S I *D sky130_fd_sc_hd__mux2_1
*I *1146:S I *D sky130_fd_sc_hd__mux2_1
*I *1144:S I *D sky130_fd_sc_hd__mux2_1
*I *1143:X O *D sky130_fd_sc_hd__o221a_2
*CAP
1 *1164:S 5.18311e-05
2 *1162:S 5.60063e-05
3 *1160:S 0.000224887
4 *1146:S 0
5 *1144:S 0.000428947
6 *1143:X 5.60711e-05
7 *154:38 0.000432803
8 *154:34 0.00106301
9 *154:27 0.00108902
10 *154:8 0.000714765
11 *1144:S *1292:CLK 0
12 *1144:S *256:23 9.14035e-05
13 *1160:S *1160:A0 2.20014e-05
14 *1160:S *1160:A1 8.69583e-05
15 *1160:S *324:10 0
16 *1164:S *1164:A0 8.64421e-05
17 *1164:S *1164:A1 1.43253e-05
18 *154:27 *1139:A 0.000198614
19 *154:27 *1146:A1 9.56017e-06
20 *154:34 *1139:A 0.000160319
21 *154:34 *1162:A1 2.747e-05
22 *154:34 *1164:A1 0.000137452
23 *154:34 *1165:A 2.88357e-05
24 *154:34 *1402:A 0.000196048
25 *1298:D *1160:S 0
26 *93:10 *1144:S 0.000312964
27 *150:6 *154:27 1.08758e-05
*RES
1 *1143:X *154:8 4.47 
2 *154:8 *1144:S 11.16 
3 *154:8 *154:27 6.275 
4 *154:27 *1146:S 1.6 
5 *154:27 *154:34 14.25 
6 *154:34 *154:38 4.4 
7 *154:38 *1160:S 7.185 
8 *154:38 *1162:S 4.395 
9 *154:34 *1164:S 2.74 
*END

*D_NET *155 0.000378624
*CONN
*I *1145:A I *D sky130_fd_sc_hd__clkbuf_1
*I *1144:X O *D sky130_fd_sc_hd__mux2_1
*CAP
1 *1145:A 0.00014331
2 *1144:X 0.00014331
3 *1291:D *1145:A 3.89366e-05
4 *93:6 *1145:A 5.30673e-05
*RES
1 *1144:X *1145:A 9.63 
*END

*D_NET *156 0.00127323
*CONN
*I *1147:A I *D sky130_fd_sc_hd__clkbuf_1
*I *1146:X O *D sky130_fd_sc_hd__mux2_1
*CAP
1 *1147:A 0.000364894
2 *1146:X 0.000364894
3 *1147:A *1140:A 4.77769e-05
4 *1147:A *1144:A1 4.41857e-05
5 *1147:A *1146:A1 0.000381907
6 *1147:A *256:23 2.68111e-05
7 *1147:A *256:37 3.18891e-05
8 *1292:D *1147:A 1.08758e-05
*RES
1 *1146:X *1147:A 12.93 
*END

*D_NET *157 0.00129172
*CONN
*I *1153:A1 I *D sky130_fd_sc_hd__a22o_1
*I *1154:A1 I *D sky130_fd_sc_hd__o221a_2
*I *1149:Y O *D sky130_fd_sc_hd__inv_2
*CAP
1 *1153:A1 4.49031e-05
2 *1154:A1 0.000119132
3 *1149:Y 6.84577e-05
4 *157:6 0.000232492
5 *1153:A1 *1153:A2 3.5678e-06
6 *1153:A1 *1153:B1 4.77769e-05
7 *1153:A1 *1153:B2 3.12916e-05
8 *1153:A1 *240:51 4.66108e-05
9 *1153:A1 *314:18 1.91597e-05
10 *1154:A1 *1153:B1 1.07593e-05
11 *1154:A1 *1153:B2 4.89395e-05
12 *1154:A1 *1154:B2 6.1451e-05
13 *1154:A1 *1155:S 7.03219e-05
14 *1154:A1 *162:12 4.87939e-05
15 *1154:A1 *314:18 7.27704e-06
16 *157:6 *1154:B2 0.000197222
17 *157:6 *240:51 0.000233561
*RES
1 *1149:Y *157:6 4.12 
2 *157:6 *1154:A1 8.39 
3 *157:6 *1153:A1 3.01 
*END

*D_NET *158 0.00146233
*CONN
*I *1152:A1 I *D sky130_fd_sc_hd__o211a_1
*I *1153:B1 I *D sky130_fd_sc_hd__a22o_1
*I *1150:Y O *D sky130_fd_sc_hd__inv_2
*CAP
1 *1152:A1 0
2 *1153:B1 0.00010091
3 *1150:Y 0.000147595
4 *158:12 0.000248504
5 *1153:B1 *1152:A2 9.12671e-06
6 *1153:B1 *1152:B1 1.26044e-05
7 *1153:B1 *1153:B2 0.000133498
8 *1153:B1 *314:18 0.000235573
9 *158:12 *1154:B1 0.000136052
10 *158:12 *1295:CLK 4.04268e-05
11 *158:12 *256:76 4.77807e-05
12 *158:12 *314:10 4.4022e-05
13 *158:12 *314:18 4.72227e-05
14 *1153:A1 *1153:B1 4.77769e-05
15 *1154:A1 *1153:B1 1.07593e-05
16 *93:95 *158:12 0.00020048
*RES
1 *1150:Y *158:12 9.725 
2 *158:12 *1153:B1 4.825 
3 *158:12 *1152:A1 1.6 
*END

*D_NET *159 0.000179105
*CONN
*I *1152:C1 I *D sky130_fd_sc_hd__o211a_1
*I *1151:Y O *D sky130_fd_sc_hd__inv_2
*CAP
1 *1152:C1 5.44468e-05
2 *1151:Y 5.44468e-05
3 *1152:C1 *1152:A2 5.09686e-06
4 *1152:C1 *1152:B1 1.19184e-05
5 *1152:C1 *292:8 4.80058e-05
6 *1152:C1 *303:27 5.19006e-06
*RES
1 *1151:Y *1152:C1 4.355 
*END

*D_NET *160 0.000607195
*CONN
*I *1154:B1 I *D sky130_fd_sc_hd__o221a_2
*I *1152:X O *D sky130_fd_sc_hd__o211a_1
*CAP
1 *1154:B1 0.000134542
2 *1152:X 0.000134542
3 *1154:B1 *1153:B2 4.80058e-05
4 *1154:B1 *1157:S 1.12643e-05
5 *1154:B1 *314:18 0.000131525
6 *93:114 *1154:B1 1.12643e-05
7 *158:12 *1154:B1 0.000136052
*RES
1 *1152:X *1154:B1 9.73875 
*END

*D_NET *161 0.00111935
*CONN
*I *1154:B2 I *D sky130_fd_sc_hd__o221a_2
*I *1153:X O *D sky130_fd_sc_hd__a22o_1
*CAP
1 *1154:B2 0.0002703
2 *1153:X 0.0002703
3 *1154:B2 *1154:A2 2.69217e-05
4 *1154:B2 *1157:S 0.00011543
5 *1154:B2 *162:12 0.000119873
6 *1154:B2 *256:60 4.83032e-05
7 *1154:A1 *1154:B2 6.1451e-05
8 *93:114 *1154:B2 9.55262e-06
9 *157:6 *1154:B2 0.000197222
*RES
1 *1153:X *1154:B2 12.345 
*END

*D_NET *162 0.00761124
*CONN
*I *1179:S I *D sky130_fd_sc_hd__mux2_1
*I *1181:S I *D sky130_fd_sc_hd__mux2_1
*I *1177:S I *D sky130_fd_sc_hd__mux2_1
*I *1157:S I *D sky130_fd_sc_hd__mux2_1
*I *1155:S I *D sky130_fd_sc_hd__mux2_1
*I *1154:X O *D sky130_fd_sc_hd__o221a_2
*CAP
1 *1179:S 0.000105149
2 *1181:S 0.000192713
3 *1177:S 0
4 *1157:S 0.000226404
5 *1155:S 0.000577301
6 *1154:X 2.0132e-05
7 *162:55 0.000515127
8 *162:44 0.00130753
9 *162:12 0.000854386
10 *162:6 0.00116108
11 *1155:S *1148:B1 8.65961e-05
12 *1155:S *1294:RESET_B 0
13 *1155:S *1295:CLK 0
14 *1155:S *1372:A 4.43871e-06
15 *1155:S *240:12 0
16 *1155:S *240:38 0
17 *1155:S *240:51 0
18 *1155:S *314:18 9.26032e-05
19 *1157:S *1157:A0 6.72833e-06
20 *1157:S *303:27 4.6075e-05
21 *1179:S *1179:A0 9.16226e-05
22 *1179:S *1179:A1 2.75145e-05
23 *1179:S *1231:A1 1.19928e-05
24 *1179:S *1328:CLK 0.000380194
25 *1179:S *1375:A 3.00381e-05
26 *1181:S *256:639 0
27 *1181:S *256:659 0
28 *1181:S *256:673 0
29 *162:12 *314:18 2.25299e-05
30 *162:44 *1149:A 0.000129765
31 *162:44 *1177:A0 1.90907e-05
32 *162:44 *1296:RESET_B 0.000115315
33 *162:44 *324:74 0.000153675
34 *162:44 *335:6 4.6075e-05
35 *162:55 *1177:A0 6.81824e-05
36 *162:55 *1231:A0 0
37 *162:55 *1231:A1 7.23602e-05
38 *162:55 *1327:RESET_B 0
39 *1154:A1 *1155:S 7.03219e-05
40 *1154:A1 *162:12 4.87939e-05
41 *1154:B1 *1157:S 1.12643e-05
42 *1154:B2 *1157:S 0.00011543
43 *1154:B2 *162:12 0.000119873
44 *1159:A1 *162:44 1.75536e-05
45 *93:95 *1155:S 0
46 *93:114 *1157:S 4.03068e-05
47 *93:114 *162:12 6.81888e-05
48 *93:114 *162:44 4.31915e-05
49 *126:10 *1181:S 0.000358236
50 *126:10 *162:55 0.000196039
51 *126:169 *162:55 0.000157418
*RES
1 *1154:X *162:6 1.96 
2 *162:6 *162:12 3.755 
3 *162:12 *1155:S 13.53 
4 *162:12 *1157:S 7.185 
5 *162:6 *162:44 15.585 
6 *162:44 *1177:S 1.6 
7 *162:44 *162:55 7.325 
8 *162:55 *1181:S 7.785 
9 *162:55 *1179:S 7.155 
*END

*D_NET *163 0.000651879
*CONN
*I *1156:A I *D sky130_fd_sc_hd__clkbuf_1
*I *1155:X O *D sky130_fd_sc_hd__mux2_1
*CAP
1 *1156:A 0.000256674
2 *1155:X 0.000256674
3 *1156:A *1151:A 0
4 *1156:A *1294:CLK 0
5 *1156:A *281:14 4.99619e-05
6 *1156:A *281:27 2.30292e-05
7 *1294:D *1156:A 6.55406e-05
8 *93:95 *1156:A 0
*RES
1 *1155:X *1156:A 11.67 
*END

*D_NET *164 0.00022492
*CONN
*I *1158:A I *D sky130_fd_sc_hd__clkbuf_1
*I *1157:X O *D sky130_fd_sc_hd__mux2_1
*CAP
1 *1158:A 8.69067e-05
2 *1157:X 8.69067e-05
3 *1158:A *303:6 5.11067e-05
*RES
1 *1157:X *1158:A 4.955 
*END

*D_NET *165 0.000166579
*CONN
*I *1161:A I *D sky130_fd_sc_hd__clkbuf_1
*I *1160:X O *D sky130_fd_sc_hd__mux2_1
*CAP
1 *1161:A 4.48133e-05
2 *1160:X 4.48133e-05
3 *1161:A *1160:A1 7.69521e-05
*RES
1 *1160:X *1161:A 4.265 
*END

*D_NET *166 0.000288978
*CONN
*I *1163:A I *D sky130_fd_sc_hd__clkbuf_1
*I *1162:X O *D sky130_fd_sc_hd__mux2_1
*CAP
1 *1163:A 7.25754e-05
2 *1162:X 7.25754e-05
3 *1163:A *1162:A0 0.000123955
4 *1298:D *1163:A 1.9872e-05
*RES
1 *1162:X *1163:A 4.955 
*END

*D_NET *167 0.000334099
*CONN
*I *1165:A I *D sky130_fd_sc_hd__clkbuf_1
*I *1164:X O *D sky130_fd_sc_hd__mux2_1
*CAP
1 *1165:A 0.000112444
2 *1164:X 0.000112444
3 *1165:A *1164:A1 7.50642e-05
4 *1165:A *326:76 5.31158e-06
5 *154:34 *1165:A 2.88357e-05
*RES
1 *1164:X *1165:A 9.285 
*END

*D_NET *168 0.00109158
*CONN
*I *1171:A1 I *D sky130_fd_sc_hd__o221a_2
*I *1170:A1 I *D sky130_fd_sc_hd__a22o_1
*I *1166:Y O *D sky130_fd_sc_hd__inv_2
*CAP
1 *1171:A1 0.000205019
2 *1170:A1 0.000133596
3 *1166:Y 0
4 *168:4 0.000338615
5 *1170:A1 *1170:A2 0.000157299
6 *1170:A1 *1174:A1 1.52352e-05
7 *1171:A1 *1166:A 1.91597e-05
8 *1171:A1 *1170:A2 8.23457e-05
9 *1171:A1 *1171:A2 9.14714e-05
10 *1171:A1 *1171:B2 1.37328e-05
11 *1171:A1 *1355:A 3.51072e-05
*RES
1 *1166:Y *168:4 1.6 
2 *168:4 *1170:A1 3.895 
3 *168:4 *1171:A1 9.02 
*END

*D_NET *169 0.00118636
*CONN
*I *1170:B1 I *D sky130_fd_sc_hd__a22o_1
*I *1169:A1 I *D sky130_fd_sc_hd__o211a_1
*I *1167:Y O *D sky130_fd_sc_hd__inv_2
*CAP
1 *1170:B1 0.000157333
2 *1169:A1 4.03819e-05
3 *1167:Y 0.000183389
4 *169:12 0.000381104
5 *1169:A1 *320:15 4.71087e-05
6 *1170:B1 *1169:A2 3.5678e-06
7 *1170:B1 *1174:A1 2.51954e-05
8 *1170:B1 *320:15 5.71932e-05
9 *169:12 *1168:A 4.43871e-06
10 *169:12 *1401:A 0.000157969
11 *169:12 *242:36 0.000111293
12 *169:12 *256:112 1.7386e-05
*RES
1 *1167:Y *169:12 9.47 
2 *169:12 *1169:A1 2.395 
3 *169:12 *1170:B1 4.135 
*END

*D_NET *170 0.00127532
*CONN
*I *1169:C1 I *D sky130_fd_sc_hd__o211a_1
*I *1168:Y O *D sky130_fd_sc_hd__inv_2
*CAP
1 *1169:C1 0.000417065
2 *1168:Y 0.000417065
3 *1169:C1 *1168:A 1.61831e-05
4 *1169:C1 *1169:B1 0
5 *1169:C1 *1172:A0 6.04361e-05
6 *1169:C1 *1301:CLK 0.00023932
7 *1169:C1 *242:8 0.000125255
*RES
1 *1168:Y *1169:C1 14.835 
*END

*D_NET *171 0.00166699
*CONN
*I *1171:B1 I *D sky130_fd_sc_hd__o221a_2
*I *1169:X O *D sky130_fd_sc_hd__o211a_1
*CAP
1 *1171:B1 0.000441456
2 *1169:X 0.000441456
3 *1171:B1 *1171:B2 0.000116353
4 *1171:B1 *1174:A1 0.000500312
5 *1171:B1 *1355:A 3.54411e-05
6 *1171:B1 *249:16 9.1483e-06
7 *1171:B1 *320:15 0.000122821
8 *93:139 *1171:B1 0
*RES
1 *1169:X *1171:B1 14.2013 
*END

*D_NET *172 0.000562437
*CONN
*I *1171:B2 I *D sky130_fd_sc_hd__o221a_2
*I *1170:X O *D sky130_fd_sc_hd__a22o_1
*CAP
1 *1171:B2 0.000198345
2 *1170:X 0.000198345
3 *1171:B2 *1355:A 2.54635e-05
4 *1171:A1 *1171:B2 1.37328e-05
5 *1171:B1 *1171:B2 0.000116353
6 *1171:C1 *1171:B2 1.01976e-05
*RES
1 *1170:X *1171:B2 10.38 
*END

*D_NET *173 0.00670087
*CONN
*I *1198:S I *D sky130_fd_sc_hd__mux2_1
*I *1196:S I *D sky130_fd_sc_hd__mux2_1
*I *1194:S I *D sky130_fd_sc_hd__mux2_1
*I *1174:S I *D sky130_fd_sc_hd__mux2_1
*I *1172:S I *D sky130_fd_sc_hd__mux2_1
*I *1171:X O *D sky130_fd_sc_hd__o221a_2
*CAP
1 *1198:S 8.14015e-05
2 *1196:S 0.000176752
3 *1194:S 0.000266066
4 *1174:S 0.000173197
5 *1172:S 0.000387083
6 *1171:X 0
7 *173:34 0.000481026
8 *173:30 0.000669525
9 *173:8 0.000879519
10 *173:4 0.000869156
11 *1172:S *1172:A0 5.34747e-05
12 *1172:S *242:36 7.47548e-05
13 *1174:S *1174:A1 4.89295e-05
14 *1174:S *1355:A 1.59888e-05
15 *1194:S *1194:A1 0.000156612
16 *1194:S *324:74 5.05981e-05
17 *1194:S *324:95 0.000505168
18 *1194:S *326:35 0.000552345
19 *1196:S *1196:A0 2.30292e-05
20 *1196:S *1197:A 4.01778e-05
21 *1196:S *325:76 0.000237243
22 *1198:S *1198:A0 3.03684e-05
23 *173:8 *1355:A 0.000347063
24 *173:30 *1199:A 3.57317e-05
25 *173:30 *1355:A 8.52845e-05
26 *173:34 *324:95 0.000113909
27 *173:34 *326:35 0.000106538
28 *1171:C1 *1172:S 4.66108e-05
29 *1171:C1 *173:8 2.86375e-05
30 *93:120 *1174:S 0.000164679
*RES
1 *1171:X *173:4 1.6 
2 *173:4 *173:8 4.515 
3 *173:8 *1172:S 7.915 
4 *173:8 *1174:S 8.63 
5 *173:4 *173:30 6.315 
6 *173:30 *173:34 3.38 
7 *173:34 *1194:S 12.6 
8 *173:34 *1196:S 7.155 
9 *173:30 *1198:S 3.01 
*END

*D_NET *174 0.000596451
*CONN
*I *1173:A I *D sky130_fd_sc_hd__clkbuf_1
*I *1172:X O *D sky130_fd_sc_hd__mux2_1
*CAP
1 *1173:A 0.000235383
2 *1172:X 0.000235383
3 *1173:A *1168:A 0
4 *1173:A *1301:CLK 0
5 *1173:A *319:12 7.35887e-05
6 *1300:D *1173:A 5.20968e-05
*RES
1 *1172:X *1173:A 11.73 
*END

*D_NET *175 0.00101786
*CONN
*I *1175:A I *D sky130_fd_sc_hd__clkbuf_1
*I *1174:X O *D sky130_fd_sc_hd__mux2_1
*CAP
1 *1175:A 0.000361683
2 *1174:X 0.000361683
3 *1175:A *1167:A 3.86607e-05
4 *1175:A *1168:A 0
5 *1175:A *256:86 0
6 *1175:A *314:10 0.00011577
7 *93:120 *1175:A 0.000140063
*RES
1 *1174:X *1175:A 14.19 
*END

*D_NET *176 0.000801432
*CONN
*I *1178:A I *D sky130_fd_sc_hd__clkbuf_1
*I *1177:X O *D sky130_fd_sc_hd__mux2_1
*CAP
1 *1178:A 0.000249193
2 *1177:X 0.000249193
3 *1178:A *1303:RESET_B 0.000224694
4 *1178:A *324:74 4.88504e-05
5 *1178:A *325:61 2.95004e-05
*RES
1 *1177:X *1178:A 12.015 
*END

*D_NET *177 0.000321717
*CONN
*I *1180:A I *D sky130_fd_sc_hd__clkbuf_1
*I *1179:X O *D sky130_fd_sc_hd__mux2_1
*CAP
1 *1180:A 0.000160858
2 *1179:X 0.000160858
3 *1180:A *1328:CLK 0
*RES
1 *1179:X *1180:A 5.645 
*END

*D_NET *178 0.00114927
*CONN
*I *1182:A I *D sky130_fd_sc_hd__clkbuf_1
*I *1181:X O *D sky130_fd_sc_hd__mux2_1
*CAP
1 *1182:A 0.000248785
2 *1181:X 0.000248785
3 *1182:A *1181:A1 4.82919e-05
4 *1182:A *324:68 0.000258367
5 *1182:A *326:72 8.40213e-05
6 *126:10 *1182:A 0.000261024
*RES
1 *1181:X *1182:A 13.8 
*END

*D_NET *179 0.000918136
*CONN
*I *1187:A1 I *D sky130_fd_sc_hd__a22o_1
*I *1188:A1 I *D sky130_fd_sc_hd__o221a_2
*I *1183:Y O *D sky130_fd_sc_hd__inv_2
*CAP
1 *1187:A1 0
2 *1188:A1 6.24495e-05
3 *1183:Y 7.98768e-05
4 *179:8 0.000142326
5 *1188:A1 *1187:A2 0.000247221
6 *1188:A1 *1187:B1 0.00013141
7 *1188:A1 *1188:B2 9.47972e-06
8 *179:8 *1187:A2 4.65706e-05
9 *179:8 *1187:B1 3.13354e-05
10 *179:8 *1188:B2 0.000123955
11 *179:8 *184:34 4.35127e-05
*RES
1 *1183:Y *179:8 4.045 
2 *179:8 *1188:A1 4.135 
3 *179:8 *1187:A1 1.6 
*END

*D_NET *180 0.00232553
*CONN
*I *1186:A2 I *D sky130_fd_sc_hd__o211a_1
*I *1187:B2 I *D sky130_fd_sc_hd__a22o_1
*I *1184:Y O *D sky130_fd_sc_hd__inv_2
*CAP
1 *1186:A2 0
2 *1187:B2 0.000578284
3 *1184:Y 0.000301347
4 *180:12 0.000879632
5 *1187:B2 *1185:A 5.05521e-05
6 *1187:B2 *1186:A1 5.30673e-05
7 *1187:B2 *1186:B1 3.26889e-05
8 *1187:B2 *1186:C1 3.20328e-05
9 *1187:B2 *1188:A2 0
10 *1187:B2 *1188:B1 0
11 *1187:B2 *242:75 7.28749e-05
12 *180:12 *1184:A 8.5841e-05
13 *180:12 *1186:A1 5.42473e-05
14 *180:12 *1189:S 0.000139238
15 *180:12 *251:8 2.66586e-05
16 *180:12 *251:15 1.90662e-05
*RES
1 *1184:Y *180:12 10.445 
2 *180:12 *1187:B2 14.03 
3 *180:12 *1186:A2 1.6 
*END

*D_NET *181 0.000706833
*CONN
*I *1186:C1 I *D sky130_fd_sc_hd__o211a_1
*I *1185:Y O *D sky130_fd_sc_hd__inv_2
*CAP
1 *1186:C1 0.000235352
2 *1185:Y 0.000235352
3 *1186:C1 *1185:A 2.75229e-05
4 *1186:C1 *1186:A1 5.05437e-05
5 *1186:C1 *1186:B1 2.10583e-05
6 *1186:C1 *1188:B1 8.65961e-05
7 *1186:C1 *250:8 1.83756e-05
8 *1187:B2 *1186:C1 3.20328e-05
*RES
1 *1185:Y *1186:C1 7.385 
*END

*D_NET *182 0.000483143
*CONN
*I *1188:B1 I *D sky130_fd_sc_hd__o221a_2
*I *1186:X O *D sky130_fd_sc_hd__o211a_1
*CAP
1 *1188:B1 0.000143894
2 *1186:X 0.000143894
3 *1188:B1 *1187:B1 6.03947e-06
4 *1188:B1 *1188:A2 1.70935e-05
5 *1188:B1 *184:12 3.78034e-06
6 *1186:C1 *1188:B1 8.65961e-05
7 *1187:B2 *1188:B1 0
8 *93:147 *1188:B1 4.94404e-05
9 *93:164 *1188:B1 3.24046e-05
*RES
1 *1186:X *1188:B1 9.73875 
*END

*D_NET *183 0.0010796
*CONN
*I *1188:B2 I *D sky130_fd_sc_hd__o221a_2
*I *1187:X O *D sky130_fd_sc_hd__a22o_1
*CAP
1 *1188:B2 8.97268e-05
2 *1187:X 8.97268e-05
3 *1188:B2 *1187:B1 0.000279017
4 *1188:B2 *184:12 0.000164874
5 *1188:B2 *184:34 0.000309084
6 *1188:A1 *1188:B2 9.47972e-06
7 *1188:C1 *1188:B2 1.37328e-05
8 *179:8 *1188:B2 0.000123955
*RES
1 *1187:X *1188:B2 7.805 
*END

*D_NET *184 0.00577161
*CONN
*I *1205:S I *D sky130_fd_sc_hd__mux2_1
*I *1209:S I *D sky130_fd_sc_hd__mux2_1
*I *1207:S I *D sky130_fd_sc_hd__mux2_1
*I *1191:S I *D sky130_fd_sc_hd__mux2_1
*I *1189:S I *D sky130_fd_sc_hd__mux2_1
*I *1188:X O *D sky130_fd_sc_hd__o221a_2
*CAP
1 *1205:S 0.000211373
2 *1209:S 3.33099e-05
3 *1207:S 0.000177042
4 *1191:S 0
5 *1189:S 0.000247033
6 *1188:X 0
7 *184:49 0.000599528
8 *184:34 0.00112061
9 *184:12 0.000637114
10 *184:4 0.000978807
11 *1189:S *1185:A 0
12 *1189:S *1186:A1 0
13 *1189:S *1189:A1 9.54399e-05
14 *1205:S *1132:A1 0.000132745
15 *1205:S *1205:A0 8.52972e-05
16 *1205:S *1205:A1 4.77769e-05
17 *1205:S *1209:A1 4.65515e-05
18 *1205:S *1362:A 5.02217e-05
19 *1205:S *326:48 2.29941e-05
20 *1207:S *1207:A0 4.77769e-05
21 *1207:S *1308:RESET_B 8.59365e-05
22 *1207:S *256:126 0.000227817
23 *1209:S *1209:A1 9.53428e-06
24 *184:12 *1187:B1 1.32463e-05
25 *184:12 *251:15 2.77183e-05
26 *184:34 *1308:RESET_B 0.000163012
27 *184:49 *1209:A1 2.11084e-05
28 *184:49 *1210:A 1.7386e-05
29 *1188:B1 *184:12 3.78034e-06
30 *1188:B2 *184:12 0.000164874
31 *1188:B2 *184:34 0.000309084
32 *1188:C1 *184:12 1.1742e-05
33 *93:147 *1189:S 0
34 *179:8 *184:34 4.35127e-05
35 *180:12 *1189:S 0.000139238
*RES
1 *1188:X *184:4 1.6 
2 *184:4 *184:12 6.965 
3 *184:12 *1189:S 7.785 
4 *184:12 *1191:S 3.6 
5 *184:4 *184:34 10.205 
6 *184:34 *1207:S 7.725 
7 *184:34 *184:49 6.935 
8 *184:49 *1209:S 2.215 
9 *184:49 *1205:S 10.115 
*END

*D_NET *185 0.000529352
*CONN
*I *1190:A I *D sky130_fd_sc_hd__clkbuf_1
*I *1189:X O *D sky130_fd_sc_hd__mux2_1
*CAP
1 *1190:A 0.000240206
2 *1189:X 0.000240206
3 *1190:A *249:14 4.89395e-05
*RES
1 *1189:X *1190:A 11.175 
*END

*D_NET *186 0.00058326
*CONN
*I *1192:A I *D sky130_fd_sc_hd__clkbuf_1
*I *1191:X O *D sky130_fd_sc_hd__mux2_1
*CAP
1 *1192:A 0.000247318
2 *1191:X 0.000247318
3 *1192:A *1184:A 0
4 *1192:A *1191:A0 0
5 *1192:A *242:85 0
6 *1192:A *251:8 4.99619e-05
7 *1307:D *1192:A 3.86607e-05
*RES
1 *1191:X *1192:A 11.325 
*END

*D_NET *187 0.000135725
*CONN
*I *1195:A I *D sky130_fd_sc_hd__clkbuf_1
*I *1194:X O *D sky130_fd_sc_hd__mux2_1
*CAP
1 *1195:A 6.78625e-05
2 *1194:X 6.78625e-05
*RES
1 *1194:X *1195:A 4.265 
*END

*D_NET *188 0.00107594
*CONN
*I *1197:A I *D sky130_fd_sc_hd__clkbuf_1
*I *1196:X O *D sky130_fd_sc_hd__mux2_1
*CAP
1 *1197:A 0.0003989
2 *1196:X 0.0003989
3 *1197:A *1310:CLK 4.05358e-05
4 *1197:A *243:8 9.60582e-07
5 *1197:A *256:234 0
6 *1197:A *325:76 2.49909e-05
7 *1197:A *326:35 7.23533e-05
8 *1196:S *1197:A 4.01778e-05
9 *1310:D *1197:A 9.91257e-05
*RES
1 *1196:X *1197:A 13.14 
*END

*D_NET *189 0.000665761
*CONN
*I *1199:A I *D sky130_fd_sc_hd__clkbuf_1
*I *1198:X O *D sky130_fd_sc_hd__mux2_1
*CAP
1 *1199:A 0.000315014
2 *1198:X 0.000315014
3 *173:30 *1199:A 3.57317e-05
*RES
1 *1198:X *1199:A 11.1 
*END

*D_NET *190 0.00087021
*CONN
*I *1201:A I *D sky130_fd_sc_hd__clkbuf_1
*I *1200:X O *D sky130_fd_sc_hd__mux2_1
*CAP
1 *1201:A 0.000305897
2 *1200:X 0.000305897
3 *1201:A *1312:CLK 8.41307e-05
4 *1201:A *253:12 1.93384e-05
5 *1129:C1 *1201:A 6.34342e-05
6 *1312:D *1201:A 1.08758e-05
7 *145:39 *1201:A 8.06364e-05
*RES
1 *1200:X *1201:A 11.67 
*END

*D_NET *191 0.00055947
*CONN
*I *1203:A I *D sky130_fd_sc_hd__clkbuf_1
*I *1202:X O *D sky130_fd_sc_hd__mux2_1
*CAP
1 *1203:A 0.000177868
2 *1202:X 0.000177868
3 *1203:A *1126:A 0
4 *1203:A *254:10 0
5 *1203:A *255:23 0.000163199
6 *1313:D *1203:A 4.05358e-05
*RES
1 *1202:X *1203:A 10.065 
*END

*D_NET *192 0.000829688
*CONN
*I *1206:A I *D sky130_fd_sc_hd__clkbuf_1
*I *1205:X O *D sky130_fd_sc_hd__mux2_1
*CAP
1 *1206:A 0.000264575
2 *1205:X 0.000264575
3 *1206:A *243:43 5.3468e-05
4 *1206:A *256:150 6.92161e-05
5 *1206:A *326:48 0.00013025
6 *1315:D *1206:A 4.76051e-05
*RES
1 *1205:X *1206:A 12.315 
*END

*D_NET *193 0.0007217
*CONN
*I *1208:A I *D sky130_fd_sc_hd__clkbuf_1
*I *1207:X O *D sky130_fd_sc_hd__mux2_1
*CAP
1 *1208:A 0.000289977
2 *1207:X 0.000289977
3 *1208:A *1176:B1 1.52352e-05
4 *1208:A *1306:RESET_B 2.00026e-05
5 *1208:A *242:60 4.79367e-05
6 *1316:D *1208:A 5.85723e-05
*RES
1 *1207:X *1208:A 7.82 
*END

*D_NET *194 0.000288269
*CONN
*I *1210:A I *D sky130_fd_sc_hd__clkbuf_1
*I *1209:X O *D sky130_fd_sc_hd__mux2_1
*CAP
1 *1210:A 0.000135442
2 *1209:X 0.000135442
3 *1210:A *1308:RESET_B 0
4 *1210:A *243:86 0
5 *184:49 *1210:A 1.7386e-05
*RES
1 *1209:X *1210:A 9.285 
*END

*D_NET *195 0.000642489
*CONN
*I *1212:A I *D sky130_fd_sc_hd__clkbuf_1
*I *1211:X O *D sky130_fd_sc_hd__mux2_1
*CAP
1 *1212:A 0.000217554
2 *1211:X 0.000217554
3 *1212:A *1211:A1 6.46994e-05
4 *1212:A *371:10 8.30853e-06
5 *1212:A *371:12 0.000134373
*RES
1 *1211:X *1212:A 10.665 
*END

*D_NET *196 0.000738189
*CONN
*I *1390:A I *D sky130_fd_sc_hd__dlygate4sd3_1
*I *1213:X O *D sky130_fd_sc_hd__mux2_1
*CAP
1 *1390:A 0.00029074
2 *1213:X 0.00029074
3 *1390:A *1318:CLK 0.000122197
4 *1390:A *371:10 3.45117e-05
*RES
1 *1213:X *1390:A 11.76 
*END

*D_NET *197 0.000578848
*CONN
*I *1385:A I *D sky130_fd_sc_hd__dlygate4sd3_1
*I *1215:X O *D sky130_fd_sc_hd__mux2_1
*CAP
1 *1385:A 0.000201584
2 *1215:X 0.000201584
3 *1385:A *1134:A0 2.21948e-05
4 *1385:A *1289:RESET_B 5.68531e-05
5 *1385:A *256:280 4.76051e-05
6 *1385:A *256:287 4.90272e-05
*RES
1 *1215:X *1385:A 11.07 
*END

*D_NET *198 0.0011086
*CONN
*I *1218:A I *D sky130_fd_sc_hd__clkbuf_1
*I *1217:X O *D sky130_fd_sc_hd__mux2_1
*CAP
1 *1218:A 0.000336002
2 *1217:X 0.000336002
3 *1218:A *1321:CLK 1.20052e-05
4 *1218:A *246:20 1.14192e-05
5 *1218:A *246:26 0.000140269
6 *126:199 *1218:A 0.000272903
*RES
1 *1217:X *1218:A 12.96 
*END

*D_NET *199 0.000585673
*CONN
*I *1220:A I *D sky130_fd_sc_hd__clkbuf_1
*I *1219:X O *D sky130_fd_sc_hd__mux2_1
*CAP
1 *1220:A 0.000170136
2 *1219:X 0.000170136
3 *1220:A *1205:A0 1.98258e-05
4 *1220:A *1388:A 0.000155253
5 *1219:S *1220:A 7.03219e-05
*RES
1 *1219:X *1220:A 10.53 
*END

*D_NET *200 0.000535609
*CONN
*I *1387:A I *D sky130_fd_sc_hd__dlygate4sd3_1
*I *1221:X O *D sky130_fd_sc_hd__mux2_1
*CAP
1 *1387:A 0.000267805
2 *1221:X 0.000267805
3 *1387:A *246:26 0
4 *1387:A *246:45 0
5 *126:216 *1387:A 0
*RES
1 *1221:X *1387:A 11.07 
*END

*D_NET *201 0.00028497
*CONN
*I *1224:A I *D sky130_fd_sc_hd__clkbuf_1
*I *1223:X O *D sky130_fd_sc_hd__mux2_1
*CAP
1 *1224:A 7.92001e-05
2 *1223:X 7.92001e-05
3 *1224:A *1223:A1 0.00012657
*RES
1 *1223:X *1224:A 4.955 
*END

*D_NET *202 0.00140078
*CONN
*I *1226:A I *D sky130_fd_sc_hd__clkbuf_1
*I *1225:X O *D sky130_fd_sc_hd__mux2_1
*CAP
1 *1226:A 0.000464858
2 *1225:X 0.000464858
3 *1226:A *1225:A1 0
4 *1226:A *1325:CLK 3.00922e-05
5 *1226:A *256:234 4.54499e-05
6 *1226:A *364:8 0.000117327
7 *1226:A *364:23 0.000164924
8 *1325:D *1226:A 0.000113269
*RES
1 *1225:X *1226:A 14.88 
*END

*D_NET *203 0.000435089
*CONN
*I *1228:A I *D sky130_fd_sc_hd__clkbuf_1
*I *1227:X O *D sky130_fd_sc_hd__mux2_1
*CAP
1 *1228:A 0.000155279
2 *1227:X 0.000155279
3 *1228:A *1326:CLK 8.65961e-05
4 *1228:A *243:62 3.79351e-05
*RES
1 *1227:X *1228:A 9.93 
*END

*D_NET *204 0.00054019
*CONN
*I *1230:A I *D sky130_fd_sc_hd__clkbuf_1
*I *1229:X O *D sky130_fd_sc_hd__mux2_1
*CAP
1 *1230:A 0.000171502
2 *1229:X 0.000171502
3 *1230:A *1229:A1 1.10951e-05
4 *1230:A *244:50 0.000136052
5 *1327:D *1230:A 5.00391e-05
*RES
1 *1229:X *1230:A 10.62 
*END

*D_NET *205 0.000306715
*CONN
*I *1232:A I *D sky130_fd_sc_hd__clkbuf_1
*I *1231:X O *D sky130_fd_sc_hd__mux2_1
*CAP
1 *1232:A 9.2263e-05
2 *1231:X 9.2263e-05
3 *126:25 *1232:A 0.000122189
*RES
1 *1231:X *1232:A 4.955 
*END

*D_NET *206 0.00090645
*CONN
*I *1380:A I *D sky130_fd_sc_hd__dlygate4sd3_1
*I *1233:X O *D sky130_fd_sc_hd__mux2_1
*CAP
1 *1380:A 0.000222388
2 *1233:X 0.000222388
3 *1380:A *1091:A_N 7.16445e-05
4 *1380:A *1233:A0 2.49909e-05
5 *1380:A *363:8 1.61831e-05
6 *1380:A *363:12 3.98757e-05
7 *1233:S *1380:A 2.66586e-05
8 *126:115 *1380:A 0.000282321
*RES
1 *1233:X *1380:A 12.105 
*END

*D_NET *207 0.000986837
*CONN
*I *1373:A I *D sky130_fd_sc_hd__dlygate4sd3_1
*I *1235:X O *D sky130_fd_sc_hd__mux2_1
*CAP
1 *1373:A 0.000364095
2 *1235:X 0.000364095
3 *1373:A *1235:A0 7.03276e-05
4 *1373:A *359:12 0.000142616
5 *1235:S *1373:A 4.57032e-05
*RES
1 *1235:X *1373:A 13.245 
*END

*D_NET *208 0.000695664
*CONN
*I *1364:A I *D sky130_fd_sc_hd__dlygate4sd3_1
*I *1237:X O *D sky130_fd_sc_hd__mux2_1
*CAP
1 *1364:A 0.000188101
2 *1237:X 0.000188101
3 *1364:A *1237:A0 8.52972e-05
4 *1364:A *1237:A1 3.46161e-05
5 *1364:A *1238:A 3.12916e-05
6 *1235:S *1364:A 8.33066e-06
7 *1331:D *1364:A 3.33763e-05
8 *126:130 *1364:A 0.00012655
*RES
1 *1237:X *1364:A 11.37 
*END

*D_NET *209 0.000388968
*CONN
*I *1407:A I *D sky130_fd_sc_hd__dlygate4sd3_1
*I *1239:X O *D sky130_fd_sc_hd__mux2_1
*CAP
1 *1407:A 0.000151254
2 *1239:X 0.000151254
3 *1407:A *1406:A 8.64599e-05
*RES
1 *1239:X *1407:A 9.375 
*END

*D_NET *210 0.000600439
*CONN
*I *1242:A I *D sky130_fd_sc_hd__clkbuf_1
*I *1241:X O *D sky130_fd_sc_hd__mux2_1
*CAP
1 *1242:A 0.000136554
2 *1241:X 0.000136554
3 *1242:A *256:353 0.000127181
4 *1242:A *256:355 5.31814e-05
5 *1333:D *1242:A 6.36578e-05
6 *30:10 *1242:A 8.33107e-05
*RES
1 *1241:X *1242:A 11.325 
*END

*D_NET *211 0.000980061
*CONN
*I *1244:A I *D sky130_fd_sc_hd__clkbuf_1
*I *1243:X O *D sky130_fd_sc_hd__mux2_1
*CAP
1 *1244:A 0.000266211
2 *1243:X 0.000266211
3 *1244:A *247:64 7.08493e-05
4 *1244:A *247:68 4.11336e-05
5 *1243:S *1244:A 0.000123225
6 *1334:D *1244:A 0.000121027
7 *30:58 *1244:A 9.14049e-05
*RES
1 *1243:X *1244:A 12 
*END

*D_NET *212 0.000685431
*CONN
*I *1246:A I *D sky130_fd_sc_hd__clkbuf_1
*I *1245:X O *D sky130_fd_sc_hd__mux2_1
*CAP
1 *1246:A 0.000205776
2 *1245:X 0.000205776
3 *1246:A *247:68 4.11308e-05
4 *1245:A1 *1246:A 2.04923e-05
5 *1335:D *1246:A 0.000120851
6 *1336:D *1246:A 9.14049e-05
*RES
1 *1245:X *1246:A 10.965 
*END

*D_NET *213 0.00418203
*CONN
*I *1248:A2 I *D sky130_fd_sc_hd__o21ai_1
*I *1276:A3 I *D sky130_fd_sc_hd__o31a_1
*I *1247:Y O *D sky130_fd_sc_hd__nand2_1
*CAP
1 *1248:A2 0.000704462
2 *1276:A3 0.000167741
3 *1247:Y 0.000330477
4 *213:14 0.00120268
5 *1248:A2 *256:465 0.000126928
6 *1276:A3 *1118:A2 1.70688e-05
7 *1276:A3 *1276:B1 2.75889e-05
8 *213:14 *1247:A 4.63281e-05
9 *213:14 *256:459 3.72952e-05
10 *213:14 *256:465 5.43021e-05
11 *1089:B1 *1276:A3 8.53113e-06
12 *1123:A1 *1276:A3 5.83121e-06
13 *1123:A1 *213:14 1.08758e-05
14 *1124:C1 *1248:A2 0.000860336
15 *1124:D1 *1248:A2 0.000105932
16 *1124:D1 *1276:A3 9.5799e-06
17 *1124:D1 *213:14 0.000196443
18 *1125:A2 *1248:A2 0.00014281
19 *1247:B *213:14 2.74452e-07
20 *1248:A1 *1248:A2 1.08758e-05
21 *1251:A1 *1276:A3 8.05415e-05
22 *1269:A1 *1248:A2 0
23 *124:38 *1248:A2 5.53549e-06
24 *129:16 *1248:A2 0
25 *135:15 *1248:A2 1.47347e-05
26 *137:37 *1276:A3 1.48554e-05
*RES
1 *1247:Y *213:14 6.4601 
2 *213:14 *1276:A3 6.9575 
3 *213:14 *1248:A2 15.6032 
*END

*D_NET *214 0.00262441
*CONN
*I *1249:A1 I *D sky130_fd_sc_hd__mux2_1
*I *1248:Y O *D sky130_fd_sc_hd__o21ai_1
*CAP
1 *1249:A1 0.000830522
2 *1248:Y 0.000830522
3 *1249:A1 *1249:A0 4.89295e-05
4 *1249:A1 *1272:B 0.000424985
5 *1249:A1 *1344:RESET_B 0
6 *1249:A1 *245:14 2.97746e-05
7 *1249:A1 *245:34 0.000235339
8 *1249:A1 *256:480 0
9 *1271:A1 *1249:A1 7.16048e-06
10 *1271:A2 *1249:A1 2.44047e-05
11 *1345:D *1249:A1 0.000181111
12 *135:15 *1249:A1 1.16578e-05
*RES
1 *1248:Y *1249:A1 20.475 
*END

*D_NET *215 0.000335087
*CONN
*I *1250:A I *D sky130_fd_sc_hd__clkbuf_1
*I *1249:X O *D sky130_fd_sc_hd__mux2_1
*CAP
1 *1250:A 0.000115662
2 *1249:X 0.000115662
3 *1250:A *1337:CLK 4.77719e-05
4 *1250:A *245:14 5.59913e-05
*RES
1 *1249:X *1250:A 9.285 
*END

*D_NET *216 0.0049185
*CONN
*I *1252:A1 I *D sky130_fd_sc_hd__mux2_1
*I *1251:Y O *D sky130_fd_sc_hd__a21oi_1
*CAP
1 *1252:A1 0.00158702
2 *1251:Y 0.00158702
3 *1252:A1 *1114:A 4.8962e-05
4 *1252:A1 *1249:A0 4.66108e-05
5 *1252:A1 *1253:A 0.000181152
6 *1252:A1 *1337:RESET_B 0.000159964
7 *1252:A1 *256:355 8.33575e-05
8 *1252:A1 *256:357 0.000596991
9 *1125:A2 *1252:A1 3.60168e-05
10 *1125:B1 *1252:A1 8.34281e-06
11 *1251:A2 *1252:A1 2.08971e-05
12 *1252:S *1252:A1 4.82863e-05
13 *30:20 *1252:A1 0
14 *124:44 *1252:A1 9.52499e-05
15 *129:6 *1252:A1 4.22944e-05
16 *129:14 *1252:A1 0.00016875
17 *137:14 *1252:A1 0.000196699
18 *137:20 *1252:A1 1.08758e-05
*RES
1 *1251:Y *1252:A1 34.065 
*END

*D_NET *217 0.000700375
*CONN
*I *1253:A I *D sky130_fd_sc_hd__clkbuf_1
*I *1252:X O *D sky130_fd_sc_hd__mux2_1
*CAP
1 *1253:A 0.000153449
2 *1252:X 0.000153449
3 *1253:A *1249:A0 5.30673e-05
4 *1252:A1 *1253:A 0.000181152
5 *1338:D *1253:A 6.74079e-05
6 *30:20 *1253:A 9.18486e-05
*RES
1 *1252:X *1253:A 11.67 
*END

*D_NET *218 0.000463944
*CONN
*I *1255:A I *D sky130_fd_sc_hd__clkbuf_1
*I *1254:X O *D sky130_fd_sc_hd__mux2_1
*CAP
1 *1255:A 0.000183229
2 *1254:X 0.000183229
3 *1255:A *245:52 4.92561e-05
4 *1254:A1 *1255:A 4.82299e-05
*RES
1 *1254:X *1255:A 9.975 
*END

*D_NET *219 0.00302332
*CONN
*I *1267:C I *D sky130_fd_sc_hd__or4_1
*I *1266:A2 I *D sky130_fd_sc_hd__o31ai_1
*I *1264:C1 I *D sky130_fd_sc_hd__a211o_1
*I *1261:B I *D sky130_fd_sc_hd__nor2_1
*I *1257:C I *D sky130_fd_sc_hd__or3_1
*I *1258:A2 I *D sky130_fd_sc_hd__o21ai_1
*I *1256:Y O *D sky130_fd_sc_hd__nand2_2
*CAP
1 *1267:C 9.46208e-05
2 *1266:A2 2.21611e-05
3 *1264:C1 0.000101944
4 *1261:B 7.87739e-05
5 *1257:C 0
6 *1258:A2 4.28024e-05
7 *1256:Y 5.93895e-05
8 *219:58 0.000172252
9 *219:43 0.000227632
10 *219:28 0.000204079
11 *219:19 0.000129329
12 *219:8 0.000176434
13 *1258:A2 *247:8 1.1392e-05
14 *1261:B *1265:A2 1.32026e-05
15 *1264:C1 *1264:A1 3.5678e-06
16 *1264:C1 *1265:B1 5.83121e-06
17 *1266:A2 *1267:D 1.00304e-05
18 *1267:C *1267:D 9.41717e-05
19 *219:19 *1259:C 7.1624e-05
20 *1258:B1 *219:19 2.24523e-05
21 *1264:B1 *1264:C1 4.77769e-05
22 *1265:C1 *219:19 1.82111e-05
23 *1265:C1 *219:28 8.54612e-05
24 *1265:C1 *219:43 2.25226e-05
25 *99:14 *1264:C1 0.00023003
26 *102:18 *1267:C 1.42674e-05
27 *102:28 *1264:C1 1.54665e-05
28 *105:16 *219:8 0.000118513
29 *105:16 *219:19 0.000217101
30 *105:16 *219:28 0.000146657
31 *105:16 *219:43 0.000166088
32 *105:16 *219:58 0.000106013
33 *127:60 *219:8 0
34 *127:60 *219:19 0
35 *139:46 *1261:B 1.08758e-05
36 *139:61 *1261:B 3.69049e-05
37 *139:61 *219:43 0.000133453
38 *139:61 *219:58 0.00011229
*RES
1 *1256:Y *219:8 4.98 
2 *219:8 *1258:A2 4.05 
3 *219:8 *219:19 2.655 
4 *219:19 *1257:C 3.6 
5 *219:19 *219:28 1.89 
6 *219:28 *1261:B 5.115 
7 *219:28 *219:43 2.145 
8 *219:43 *1264:C1 6.135 
9 *219:43 *219:58 3.89 
10 *219:58 *1266:A2 1.8775 
11 *219:58 *1267:C 3.46 
*END

*D_NET *220 0.000214798
*CONN
*I *1259:B I *D sky130_fd_sc_hd__and3_1
*I *1257:X O *D sky130_fd_sc_hd__or3_1
*CAP
1 *1259:B 9.65067e-05
2 *1257:X 9.65067e-05
3 *1259:B *1259:C 8.32263e-06
4 *1265:C1 *1259:B 1.34618e-05
*RES
1 *1257:X *1259:B 4.34 
*END

*D_NET *221 0.00066769
*CONN
*I *1259:C I *D sky130_fd_sc_hd__and3_1
*I *1258:Y O *D sky130_fd_sc_hd__o21ai_1
*CAP
1 *1259:C 0.000208146
2 *1258:Y 0.000208146
3 *1258:B1 *1259:C 4.67609e-05
4 *1259:B *1259:C 8.32263e-06
5 *1265:C1 *1259:C 0.000121039
6 *98:72 *1259:C 3.64998e-06
7 *219:19 *1259:C 7.1624e-05
*RES
1 *1258:Y *1259:C 10.305 
*END

*D_NET *222 0.000178443
*CONN
*I *1260:A I *D sky130_fd_sc_hd__clkbuf_1
*I *1259:X O *D sky130_fd_sc_hd__and3_1
*CAP
1 *1260:A 8.92216e-05
2 *1259:X 8.92216e-05
*RES
1 *1259:X *1260:A 4.61 
*END

*D_NET *223 0.000439768
*CONN
*I *1265:A2 I *D sky130_fd_sc_hd__o211a_1
*I *1261:Y O *D sky130_fd_sc_hd__nor2_1
*CAP
1 *1265:A2 0.000181017
2 *1261:Y 0.000181017
3 *1261:B *1265:A2 1.32026e-05
4 *1265:C1 *1265:A2 5.87002e-05
5 *139:61 *1265:A2 5.83121e-06
*RES
1 *1261:Y *1265:A2 9.72 
*END

*D_NET *224 0.00097991
*CONN
*I *1267:D I *D sky130_fd_sc_hd__or4_1
*I *1266:A3 I *D sky130_fd_sc_hd__o31ai_1
*I *1264:A1 I *D sky130_fd_sc_hd__a211o_1
*I *1262:Y O *D sky130_fd_sc_hd__nand2_1
*CAP
1 *1267:D 6.41922e-05
2 *1266:A3 0
3 *1264:A1 9.78109e-05
4 *1262:Y 4.13384e-05
5 *224:21 7.86031e-05
6 *224:6 0.00015356
7 *224:6 *1262:A 2.01737e-05
8 *1264:C1 *1264:A1 3.5678e-06
9 *1266:A2 *1267:D 1.00304e-05
10 *1267:A *1267:D 4.00541e-06
11 *1267:C *1267:D 9.41717e-05
12 *102:18 *1267:D 9.02898e-05
13 *102:18 *224:6 2.49909e-05
14 *102:18 *224:21 2.69217e-05
15 *102:28 *1264:A1 0.000112589
16 *105:16 *1264:A1 7.03219e-05
17 *105:16 *224:6 6.81824e-05
18 *105:16 *224:21 1.91597e-05
*RES
1 *1262:Y *224:6 2.74 
2 *224:6 *1264:A1 7.85 
3 *224:6 *224:21 0.45 
4 *224:21 *1266:A3 1.6 
5 *224:21 *1267:D 3.445 
*END

*D_NET *225 0.000372626
*CONN
*I *1264:A2 I *D sky130_fd_sc_hd__a211o_1
*I *1263:X O *D sky130_fd_sc_hd__or2_1
*CAP
1 *1264:A2 8.94249e-05
2 *1263:X 8.94249e-05
3 *1264:B1 *1264:A2 5.79947e-05
4 *105:16 *1264:A2 0.000110791
5 *139:46 *1264:A2 2.49909e-05
*RES
1 *1263:X *1264:A2 9.03 
*END

*D_NET *226 0.000250795
*CONN
*I *1265:B1 I *D sky130_fd_sc_hd__o211a_1
*I *1264:X O *D sky130_fd_sc_hd__a211o_1
*CAP
1 *1265:B1 7.8974e-05
2 *1264:X 7.8974e-05
3 *1264:C1 *1265:B1 5.83121e-06
4 *1265:C1 *1265:B1 4.66108e-05
5 *99:8 *1265:B1 1.26044e-05
6 *99:14 *1265:B1 2.78002e-05
*RES
1 *1264:X *1265:B1 4.7 
*END

*D_NET *227 0.000355551
*CONN
*I *1268:A1 I *D sky130_fd_sc_hd__a21oi_1
*I *1266:Y O *D sky130_fd_sc_hd__o31ai_1
*CAP
1 *1268:A1 9.74624e-05
2 *1266:Y 9.74624e-05
3 *1268:A1 *1268:A2 7.23602e-05
4 *102:18 *1268:A1 8.8266e-05
*RES
1 *1266:Y *1268:A1 8.865 
*END

*D_NET *228 0.000861071
*CONN
*I *1268:A2 I *D sky130_fd_sc_hd__a21oi_1
*I *1267:X O *D sky130_fd_sc_hd__or4_1
*CAP
1 *1268:A2 0.000235119
2 *1267:X 0.000235119
3 *1268:A2 *1342:CLK 0
4 *1268:A2 *256:315 1.43521e-05
5 *1268:A1 *1268:A2 7.23602e-05
6 *1268:B1 *1268:A2 1.43521e-05
7 *102:14 *1268:A2 8.65905e-05
8 *102:18 *1268:A2 0.000203178
*RES
1 *1267:X *1268:A2 11.1 
*END

*D_NET *229 0.000117573
*CONN
*I *1270:B I *D sky130_fd_sc_hd__nand2_1
*I *1269:Y O *D sky130_fd_sc_hd__o21ai_1
*CAP
1 *1270:B 4.47203e-05
2 *1269:Y 4.47203e-05
3 *1270:B *375:12 1.4399e-05
4 *1121:A2 *1270:B 1.37328e-05
*RES
1 *1269:Y *1270:B 4.01 
*END

*D_NET *230 0.000934241
*CONN
*I *1272:B I *D sky130_fd_sc_hd__nand2_1
*I *1271:Y O *D sky130_fd_sc_hd__o21ai_1
*CAP
1 *1272:B 0.000101995
2 *1271:Y 0.000101995
3 *1272:B *1271:B1 3.00381e-05
4 *1272:B *1405:A 1.9415e-05
5 *1249:A1 *1272:B 0.000424985
6 *1272:A *1272:B 0.000235941
7 *1345:D *1272:B 1.9872e-05
*RES
1 *1271:Y *1272:B 7.46 
*END

*D_NET *231 0.00124845
*CONN
*I *1274:B I *D sky130_fd_sc_hd__or2_1
*I *1273:X O *D sky130_fd_sc_hd__o31a_1
*CAP
1 *1274:B 0.00052015
2 *1273:X 0.00052015
3 *99:57 *1274:B 0.000138015
4 *129:52 *1274:B 7.01359e-05
*RES
1 *1273:X *1274:B 14.67 
*END

*D_NET *232 0.000501352
*CONN
*I *1275:A I *D sky130_fd_sc_hd__clkbuf_1
*I *1274:X O *D sky130_fd_sc_hd__or2_1
*CAP
1 *1275:A 0.000201917
2 *1274:X 0.000201917
3 *99:57 *1275:A 5.15164e-05
4 *126:40 *1275:A 4.60012e-05
*RES
1 *1274:X *1275:A 10.32 
*END

*D_NET *233 0.000847717
*CONN
*I *1277:B I *D sky130_fd_sc_hd__or2_1
*I *1276:X O *D sky130_fd_sc_hd__o31a_1
*CAP
1 *1277:B 0.000179197
2 *1276:X 0.000179197
3 *1277:B *256:459 7.81583e-05
4 *1277:B *355:48 0.000265917
5 *1123:A1 *1277:B 9.76407e-06
6 *1124:D1 *1277:B 2.49909e-05
7 *1347:D *1277:B 0.000110492
*RES
1 *1276:X *1277:B 11.16 
*END

*D_NET *234 0.000646074
*CONN
*I *1278:A I *D sky130_fd_sc_hd__clkbuf_1
*I *1277:X O *D sky130_fd_sc_hd__or2_1
*CAP
1 *1278:A 0.000176966
2 *1277:X 0.000176966
3 *1278:A *1360:A 0.000198001
4 *1347:D *1278:A 6.65881e-05
5 *1433:A *1278:A 2.75538e-05
*RES
1 *1277:X *1278:A 11.01 
*END

*D_NET *235 0.000306176
*CONN
*I *1280:B I *D sky130_fd_sc_hd__or2_1
*I *1279:Y O *D sky130_fd_sc_hd__a21oi_1
*CAP
1 *1280:B 8.37689e-05
2 *1279:Y 8.37689e-05
3 *1111:A *1280:B 7.14241e-05
4 *130:23 *1280:B 6.72143e-05
*RES
1 *1279:Y *1280:B 8.94 
*END

*D_NET *236 0.000524839
*CONN
*I *1281:A I *D sky130_fd_sc_hd__clkbuf_1
*I *1280:X O *D sky130_fd_sc_hd__or2_1
*CAP
1 *1281:A 0.000214572
2 *1280:X 0.000214572
3 *1280:A *1281:A 2.68526e-05
4 *126:64 *1281:A 6.88421e-05
5 *127:60 *1281:A 0
*RES
1 *1280:X *1281:A 10.065 
*END

*D_NET *237 0.00015788
*CONN
*I *1284:B I *D sky130_fd_sc_hd__nor2_1
*I *1283:Y O *D sky130_fd_sc_hd__a21oi_1
*CAP
1 *1284:B 4.43404e-05
2 *1283:Y 4.43404e-05
3 *1284:B *1283:A2 3.88516e-05
4 *1284:B *1283:B1 2.68464e-05
5 *1077:A *1284:B 3.50152e-06
*RES
1 *1283:Y *1284:B 4.37 
*END

*D_NET *238 0.000777237
*CONN
*I *1286:B I *D sky130_fd_sc_hd__nor2_1
*I *1285:Y O *D sky130_fd_sc_hd__nor2_1
*CAP
1 *1286:B 0.000166897
2 *1285:Y 0.000166897
3 *1286:B *1351:RESET_B 3.35088e-05
4 *1286:B *240:38 0
5 *1286:B *240:51 0
6 *1286:B *256:621 0
7 *1286:A *1286:B 0.000320089
8 *1351:D *1286:B 8.98462e-05
*RES
1 *1285:Y *1286:B 11.415 
*END

*D_NET *239 0.0156031
*CONN
*I *1360:A I *D sky130_fd_sc_hd__clkbuf_16
*I *1359:A I *D sky130_fd_sc_hd__clkbuf_16
*I *1356:A I *D sky130_fd_sc_hd__clkbuf_16
*I *1353:A I *D sky130_fd_sc_hd__clkbuf_16
*I *1354:A I *D sky130_fd_sc_hd__clkbuf_16
*I *1355:A I *D sky130_fd_sc_hd__clkbuf_16
*I *1358:A I *D sky130_fd_sc_hd__clkbuf_16
*I *1357:A I *D sky130_fd_sc_hd__clkbuf_16
*I *1352:X O *D sky130_fd_sc_hd__clkbuf_16
*CAP
1 *1360:A 0.000196578
2 *1359:A 6.21484e-05
3 *1356:A 0
4 *1353:A 0.000287166
5 *1354:A 0.000164038
6 *1355:A 0.000315445
7 *1358:A 0.000908317
8 *1357:A 0.000149387
9 *1352:X 0
10 *239:122 0.000761661
11 *239:87 0.00131847
12 *239:64 0.00118271
13 *239:62 0.00182087
14 *239:50 0.00250317
15 *239:18 0.00223642
16 *239:6 0.00135808
17 *1354:A *256:621 0.000232258
18 *1355:A *1174:A1 0
19 *1357:A *1233:A1 4.99619e-05
20 *239:18 *1225:A0 6.72027e-05
21 *239:50 *1106:B 0.000249651
22 *239:50 *1225:A0 8.59296e-05
23 *239:50 *256:246 5.53549e-06
24 *239:62 *1310:CLK 2.09673e-05
25 *239:87 *256:621 9.37731e-05
26 *239:122 *256:246 2.02588e-05
27 *1096:B *1358:A 0.000125543
28 *1097:B *1358:A 0
29 *1107:A *239:122 0.000235573
30 *1108:C1 *239:50 0
31 *1108:D1 *239:122 4.41363e-05
32 *1171:A1 *1355:A 3.51072e-05
33 *1171:B1 *1355:A 3.54411e-05
34 *1171:B2 *1355:A 2.54635e-05
35 *1171:C1 *1355:A 0.000117186
36 *1174:S *1355:A 1.59888e-05
37 *1278:A *1360:A 0.000198001
38 *1296:D *239:87 9.24825e-05
39 *1304:D *239:87 1.22839e-05
40 *1352:A *239:18 0
41 *93:120 *1355:A 7.21296e-06
42 *93:139 *1355:A 1.22762e-05
43 *98:12 *1359:A 3.12855e-05
44 *98:14 *1359:A 9.27736e-05
45 *99:43 *239:122 0
46 *99:57 *239:18 0
47 *99:57 *239:50 0
48 *173:8 *1355:A 0.000347063
49 *173:30 *1355:A 8.52845e-05
*RES
1 *1352:X *239:6 3.6 
2 *239:6 *239:18 4.41483 
3 *239:18 *1357:A 4.96617 
4 *239:18 *1358:A 8.03823 
5 *239:6 *239:50 4.0575 
6 *239:50 *239:62 9.93557 
7 *239:62 *239:64 2 
8 *239:64 *1355:A 14.71 
9 *239:64 *239:87 14.325 
10 *239:87 *1354:A 7.05 
11 *239:87 *1353:A 7.5 
12 *239:62 *1356:A 1.6 
13 *239:50 *239:122 10.1075 
14 *239:122 *1359:A 6.98 
15 *239:122 *1360:A 4.81 
*END

*D_NET *240 0.0149507
*CONN
*I *1295:CLK I *D sky130_fd_sc_hd__dfrtp_1
*I *1287:CLK I *D sky130_fd_sc_hd__dfrtp_1
*I *1350:CLK I *D sky130_fd_sc_hd__dfrtp_4
*I *1292:CLK I *D sky130_fd_sc_hd__dfrtp_1
*I *1291:CLK I *D sky130_fd_sc_hd__dfrtp_1
*I *1349:CLK I *D sky130_fd_sc_hd__dfrtp_4
*I *1296:CLK I *D sky130_fd_sc_hd__dfrtp_1
*I *1304:CLK I *D sky130_fd_sc_hd__dfrtp_1
*I *1309:CLK I *D sky130_fd_sc_hd__dfrtp_1
*I *1351:CLK I *D sky130_fd_sc_hd__dfrtp_4
*I *1294:CLK I *D sky130_fd_sc_hd__dfrtp_1
*I *1293:CLK I *D sky130_fd_sc_hd__dfrtp_1
*I *1353:X O *D sky130_fd_sc_hd__clkbuf_16
*CAP
1 *1295:CLK 0.000653485
2 *1287:CLK 5.93528e-05
3 *1350:CLK 0
4 *1292:CLK 0.000188198
5 *1291:CLK 0.00039382
6 *1349:CLK 8.74924e-05
7 *1296:CLK 0.000309893
8 *1304:CLK 0
9 *1309:CLK 0.000437545
10 *1351:CLK 0
11 *1294:CLK 0.000214955
12 *1293:CLK 7.31357e-05
13 *1353:X 3.58834e-05
14 *240:107 0.00119143
15 *240:94 0.000988224
16 *240:92 0.000489513
17 *240:90 0.000539748
18 *240:64 0.000399246
19 *240:51 0.000935657
20 *240:38 0.000506775
21 *240:34 0.000580428
22 *240:14 0.000586759
23 *240:12 0.000702551
24 *240:8 0.000893036
25 *1287:CLK *256:621 4.75951e-05
26 *1292:CLK *1140:A 0.000106873
27 *1292:CLK *256:8 0
28 *1292:CLK *256:23 0.000114649
29 *1292:CLK *327:12 5.20968e-05
30 *1294:CLK *281:14 9.54469e-05
31 *1294:CLK *281:27 0
32 *1295:CLK *1151:A 2.34238e-05
33 *1295:CLK *1155:A1 0.000177568
34 *1295:CLK *1157:A0 0.000155489
35 *1295:CLK *1295:RESET_B 7.78022e-05
36 *1295:CLK *256:86 1.46781e-05
37 *1295:CLK *303:27 7.03219e-05
38 *1296:CLK *1304:RESET_B 1.3582e-05
39 *1296:CLK *256:607 6.57665e-06
40 *1309:CLK *1149:A 0.000113222
41 *1309:CLK *1159:A2 0.000103446
42 *240:12 *1155:A1 0.000251588
43 *240:12 *1294:RESET_B 0.000339893
44 *240:14 *1293:RESET_B 8.07502e-05
45 *240:34 *1293:RESET_B 3.63576e-05
46 *240:34 *1372:A 0.000160338
47 *240:34 *329:10 6.63221e-05
48 *240:38 *1372:A 9.24127e-05
49 *240:51 *1149:A 0.000121019
50 *240:51 *1159:A2 6.60042e-05
51 *240:51 *1351:RESET_B 0
52 *240:51 *256:58 0.000319855
53 *240:51 *256:60 6.08449e-05
54 *240:51 *256:607 1.55649e-05
55 *240:51 *314:18 9.47972e-06
56 *240:64 *256:607 7.18558e-05
57 *240:90 *256:621 7.77943e-06
58 *240:92 *1283:A2 0.000221214
59 *240:92 *256:621 7.85442e-06
60 *240:94 *1283:A2 0.00022122
61 *240:94 *256:707 0
62 *1079:A *240:90 0.000123955
63 *1144:S *1292:CLK 0
64 *1153:A1 *240:51 4.66108e-05
65 *1155:S *1295:CLK 0
66 *1155:S *240:12 0
67 *1155:S *240:38 0
68 *1155:S *240:51 0
69 *1156:A *1294:CLK 0
70 *1285:B *240:90 6.60753e-05
71 *1286:A *240:90 5.06989e-05
72 *1286:B *240:38 0
73 *1286:B *240:51 0
74 *1287:D *240:90 8.61546e-05
75 *1291:D *1291:CLK 3.00381e-05
76 *1293:D *1293:CLK 8.53856e-06
77 *1293:D *1294:CLK 3.86607e-05
78 *1293:D *240:14 5.05521e-05
79 *1309:D *1309:CLK 9.2951e-05
80 *1349:D *1349:CLK 6.73665e-05
81 *1349:D *240:94 8.56227e-05
82 *1419:A *1294:CLK 0
83 *93:23 *240:94 7.03823e-05
84 *93:66 *240:12 0
85 *93:95 *1294:CLK 0
86 *93:95 *1295:CLK 0.000171149
87 *93:95 *240:8 2.75229e-05
88 *93:95 *240:12 0
89 *93:120 *1309:CLK 0
90 *94:25 *240:90 2.68464e-05
91 *94:25 *240:92 4.33239e-05
92 *157:6 *240:51 0.000233561
93 *158:12 *1295:CLK 4.04268e-05
*RES
1 *1353:X *240:8 4.05 
2 *240:8 *240:12 7.46 
3 *240:12 *240:14 4.935 
4 *240:14 *1293:CLK 2.74 
5 *240:14 *1294:CLK 9.53 
6 *240:12 *240:34 3.9 
7 *240:34 *240:38 4.145 
8 *240:38 *1351:CLK 3.6 
9 *240:38 *240:51 11.435 
10 *240:51 *1309:CLK 13.61 
11 *240:51 *240:64 1.83 
12 *240:64 *1304:CLK 1.6 
13 *240:64 *1296:CLK 9.425 
14 *240:34 *240:90 7.7675 
15 *240:90 *240:92 4.0575 
16 *240:92 *240:94 6.225 
17 *240:94 *1349:CLK 5.49 
18 *240:94 *240:107 11.075 
19 *240:107 *1291:CLK 7.57 
20 *240:107 *1292:CLK 9.785 
21 *240:92 *1350:CLK 3.6 
22 *240:90 *1287:CLK 4.6275 
23 *240:8 *1295:CLK 16.56 
*END

*D_NET *241 0.00875834
*CONN
*I *1305:CLK I *D sky130_fd_sc_hd__dfrtp_1
*I *1324:CLK I *D sky130_fd_sc_hd__dfrtp_1
*I *1303:CLK I *D sky130_fd_sc_hd__dfrtp_1
*I *1328:CLK I *D sky130_fd_sc_hd__dfrtp_1
*I *1299:CLK I *D sky130_fd_sc_hd__dfrtp_1
*I *1297:CLK I *D sky130_fd_sc_hd__dfrtp_1
*I *1298:CLK I *D sky130_fd_sc_hd__dfrtp_1
*I *1354:X O *D sky130_fd_sc_hd__clkbuf_16
*CAP
1 *1305:CLK 6.59222e-05
2 *1324:CLK 0.000309315
3 *1303:CLK 0.000231247
4 *1328:CLK 0.000290674
5 *1299:CLK 0.000274845
6 *1297:CLK 0
7 *1298:CLK 0.000599946
8 *1354:X 0.000107502
9 *241:68 0.000715397
10 *241:53 0.000551057
11 *241:18 0.00106358
12 *241:10 0.000976576
13 *241:8 0.000323649
14 *241:6 0.000173424
15 *1298:CLK *1371:A 4.94474e-05
16 *1298:CLK *256:737 9.47316e-05
17 *1299:CLK *1077:B 8.35118e-05
18 *1299:CLK *324:31 8.83056e-05
19 *1299:CLK *325:29 0.000121659
20 *1324:CLK *1194:A0 3.14534e-05
21 *1324:CLK *1324:RESET_B 8.45899e-05
22 *1324:CLK *324:74 0.000170621
23 *1324:CLK *325:61 0.000178952
24 *1328:CLK *1179:A1 1.34594e-05
25 *1328:CLK *1231:A1 1.17409e-05
26 *241:10 *1282:B 0.000310135
27 *241:10 *1283:B1 0
28 *241:10 *325:46 9.76522e-05
29 *241:10 *326:35 3.47837e-05
30 *241:18 *1282:B 0.000287961
31 *241:18 *1349:RESET_B 0
32 *241:18 *256:707 0
33 *241:18 *324:10 0
34 *241:53 *325:46 0.0001032
35 *241:53 *326:35 7.45712e-05
36 *241:68 *324:74 0.000135382
37 *241:68 *325:46 5.47531e-05
38 *241:68 *325:61 0.0003764
39 *241:68 *326:35 0.000155462
40 *1179:S *1328:CLK 0.000380194
41 *1180:A *1328:CLK 0
42 *1297:D *1298:CLK 5.27885e-05
43 *1299:D *1299:CLK 2.01737e-05
44 *1303:D *1303:CLK 4.31127e-05
45 *1324:D *1324:CLK 2.01737e-05
*RES
1 *1354:X *241:6 2.74 
2 *241:6 *241:8 2 
3 *241:8 *241:10 5.715 
4 *241:10 *241:18 10.82 
5 *241:18 *1298:CLK 10.045 
6 *241:18 *1297:CLK 1.6 
7 *241:10 *1299:CLK 8.565 
8 *241:8 *241:53 2.145 
9 *241:53 *1328:CLK 8.565 
10 *241:53 *241:68 6.225 
11 *241:68 *1303:CLK 6.39 
12 *241:68 *1324:CLK 10.02 
13 *241:6 *1305:CLK 2.665 
*END

*D_NET *242 0.0105041
*CONN
*I *1312:CLK I *D sky130_fd_sc_hd__dfrtp_1
*I *1308:CLK I *D sky130_fd_sc_hd__dfrtp_1
*I *1307:CLK I *D sky130_fd_sc_hd__dfrtp_1
*I *1313:CLK I *D sky130_fd_sc_hd__dfrtp_1
*I *1314:CLK I *D sky130_fd_sc_hd__dfrtp_1
*I *1316:CLK I *D sky130_fd_sc_hd__dfrtp_1
*I *1306:CLK I *D sky130_fd_sc_hd__dfrtp_1
*I *1302:CLK I *D sky130_fd_sc_hd__dfrtp_1
*I *1300:CLK I *D sky130_fd_sc_hd__dfrtp_1
*I *1301:CLK I *D sky130_fd_sc_hd__dfrtp_1
*I *1355:X O *D sky130_fd_sc_hd__clkbuf_16
*CAP
1 *1312:CLK 0.000351857
2 *1308:CLK 0
3 *1307:CLK 0
4 *1313:CLK 0.000230018
5 *1314:CLK 0
6 *1316:CLK 8.36484e-05
7 *1306:CLK 0.000485519
8 *1302:CLK 0
9 *1300:CLK 0.000428348
10 *1301:CLK 0.000152153
11 *1355:X 0
12 *242:85 0.000588467
13 *242:81 0.000881868
14 *242:79 0.000559091
15 *242:75 0.000798326
16 *242:60 0.000765079
17 *242:47 0.000865014
18 *242:36 0.000440721
19 *242:8 0.000650668
20 *242:4 0.000402027
21 *1300:CLK *1300:RESET_B 4.51129e-05
22 *1301:CLK *1168:A 0.000116157
23 *1301:CLK *1301:RESET_B 0
24 *1301:CLK *256:86 3.09233e-05
25 *1301:CLK *256:100 8.59365e-05
26 *1306:CLK *1306:RESET_B 0.000156195
27 *1312:CLK *252:12 0
28 *1312:CLK *253:12 4.86642e-05
29 *1313:CLK *253:12 0.000122202
30 *1316:CLK *1176:A2 2.31331e-05
31 *242:8 *1168:A 3.05373e-05
32 *242:8 *1401:A 9.73898e-05
33 *242:36 *1401:A 6.4402e-05
34 *242:60 *1176:B1 8.35118e-05
35 *242:60 *1185:A 0
36 *242:60 *1306:RESET_B 7.19206e-05
37 *242:75 *1185:A 0
38 *242:75 *252:12 0
39 *242:79 *256:811 6.6564e-05
40 *242:81 *1184:A 7.85595e-05
41 *242:81 *1307:RESET_B 2.20753e-05
42 *242:81 *256:811 0.000200156
43 *1129:A2 *1312:CLK 0.000158536
44 *1129:C1 *1312:CLK 1.91597e-05
45 *1169:C1 *1301:CLK 0.00023932
46 *1169:C1 *242:8 0.000125255
47 *1172:S *242:36 7.47548e-05
48 *1173:A *1301:CLK 0
49 *1176:A1 *1316:CLK 1.08758e-05
50 *1187:B2 *242:75 7.28749e-05
51 *1192:A *242:85 0
52 *1201:A *1312:CLK 8.41307e-05
53 *1208:A *242:60 4.79367e-05
54 *1302:D *242:47 8.36568e-05
55 *1307:D *242:81 3.32922e-05
56 *1307:D *242:85 0
57 *1308:D *1312:CLK 3.67779e-05
58 *1308:D *242:79 4.65868e-05
59 *1312:D *1312:CLK 2.10214e-05
60 *1412:A *242:85 0
61 *1413:A *1313:CLK 1.14192e-05
62 *93:139 *242:60 0.000178061
63 *93:147 *1316:CLK 1.52563e-05
64 *93:168 *1312:CLK 0.000107615
65 *169:12 *242:36 0.000111293
*RES
1 *1355:X *242:4 1.6 
2 *242:4 *242:8 4.655 
3 *242:8 *1301:CLK 8.025 
4 *242:8 *1300:CLK 9.915 
5 *242:4 *242:36 7.505 
6 *242:36 *1302:CLK 3.6 
7 *242:36 *242:47 4.145 
8 *242:47 *1306:CLK 9.64 
9 *242:47 *242:60 6.83 
10 *242:60 *1316:CLK 5.115 
11 *242:60 *242:75 5.715 
12 *242:75 *242:79 3.14 
13 *242:79 *242:81 9.075 
14 *242:81 *242:85 7.97 
15 *242:85 *1314:CLK 3.6 
16 *242:85 *1313:CLK 7.785 
17 *242:81 *1307:CLK 1.6 
18 *242:79 *1308:CLK 1.6 
19 *242:75 *1312:CLK 11.055 
*END

*D_NET *243 0.0113762
*CONN
*I *1289:CLK I *D sky130_fd_sc_hd__dfrtp_1
*I *1288:CLK I *D sky130_fd_sc_hd__dfrtp_1
*I *1290:CLK I *D sky130_fd_sc_hd__dfrtp_1
*I *1317:CLK I *D sky130_fd_sc_hd__dfrtp_1
*I *1326:CLK I *D sky130_fd_sc_hd__dfrtp_1
*I *1325:CLK I *D sky130_fd_sc_hd__dfrtp_1
*I *1322:CLK I *D sky130_fd_sc_hd__dfrtp_1
*I *1315:CLK I *D sky130_fd_sc_hd__dfrtp_1
*I *1311:CLK I *D sky130_fd_sc_hd__dfrtp_1
*I *1310:CLK I *D sky130_fd_sc_hd__dfrtp_1
*I *1356:X O *D sky130_fd_sc_hd__clkbuf_16
*CAP
1 *1289:CLK 0.000224149
2 *1288:CLK 0.000141492
3 *1290:CLK 5.73079e-05
4 *1317:CLK 0
5 *1326:CLK 5.23569e-05
6 *1325:CLK 0.000350375
7 *1322:CLK 1.8855e-05
8 *1315:CLK 3.56498e-05
9 *1311:CLK 7.66411e-05
10 *1310:CLK 0.000122858
11 *1356:X 7.75742e-05
12 *243:112 0.000590545
13 *243:97 0.000662488
14 *243:86 0.000631204
15 *243:62 0.000941341
16 *243:49 0.000815613
17 *243:43 0.000652512
18 *243:30 0.000385486
19 *243:19 0.000492734
20 *243:8 0.000410125
21 *1288:CLK *1134:A0 9.51965e-05
22 *1288:CLK *1288:RESET_B 0.000232411
23 *1310:CLK *326:35 6.03579e-05
24 *1315:CLK *1207:A0 5.81494e-05
25 *1315:CLK *1207:A1 8.52972e-05
26 *1322:CLK *1205:A0 9.13949e-06
27 *1325:CLK *1391:A 0
28 *1325:CLK *256:234 0.000171036
29 *243:19 *326:35 5.93303e-05
30 *243:19 *326:48 0
31 *243:43 *256:126 0
32 *243:43 *326:48 0
33 *243:49 *1205:A0 0.000594881
34 *243:49 *1219:A0 0.000201871
35 *243:49 *1362:A 0.000237249
36 *243:49 *256:150 8.65155e-05
37 *243:62 *1134:A1 6.85267e-05
38 *243:62 *1205:A0 8.61546e-05
39 *243:62 *1219:A0 0.00016031
40 *243:62 *277:10 0
41 *243:86 *1136:A1 0
42 *243:86 *1209:A0 0.000143266
43 *243:86 *1308:RESET_B 0
44 *243:86 *256:126 0
45 *243:86 *326:48 0
46 *243:97 *1136:A1 0
47 *243:97 *1308:RESET_B 0
48 *243:112 *1134:A1 0.000122797
49 *243:112 *1136:A0 0.000332758
50 *243:112 *1290:RESET_B 4.20673e-05
51 *243:112 *1384:A 3.73067e-05
52 *1134:S *243:112 3.68999e-05
53 *1197:A *1310:CLK 4.05358e-05
54 *1197:A *243:8 9.60582e-07
55 *1206:A *243:43 5.3468e-05
56 *1210:A *243:86 0
57 *1226:A *1325:CLK 3.00922e-05
58 *1228:A *1326:CLK 8.65961e-05
59 *1228:A *243:62 3.79351e-05
60 *1288:D *1288:CLK 7.08554e-05
61 *1289:D *1288:CLK 0.000131168
62 *1289:D *1289:CLK 0.000137
63 *1290:D *1290:CLK 1.79098e-05
64 *1290:D *243:112 0.000120269
65 *1311:D *1311:CLK 7.30505e-05
66 *1315:D *243:30 9.05535e-05
67 *1315:D *243:43 8.33066e-06
68 *1322:D *243:62 6.88421e-05
69 *1325:D *1325:CLK 2.86975e-05
70 *1326:D *1326:CLK 0.000125262
71 *126:180 *1325:CLK 0
72 *126:180 *243:62 0
73 *145:67 *1290:CLK 9.32375e-05
74 *145:67 *243:112 0.000479607
75 *239:62 *1310:CLK 2.09673e-05
*RES
1 *1356:X *243:8 4.395 
2 *243:8 *1310:CLK 6.255 
3 *243:8 *243:19 3.675 
4 *243:19 *1311:CLK 5.085 
5 *243:19 *243:30 3.675 
6 *243:30 *1315:CLK 4.755 
7 *243:30 *243:43 2.655 
8 *243:43 *243:49 9.365 
9 *243:49 *1322:CLK 1.96 
10 *243:49 *243:62 12.005 
11 *243:62 *1325:CLK 9.375 
12 *243:62 *1326:CLK 5.085 
13 *243:43 *243:86 4.185 
14 *243:86 *1317:CLK 3.6 
15 *243:86 *243:97 8.225 
16 *243:97 *1290:CLK 3.085 
17 *243:97 *243:112 10.85 
18 *243:112 *1288:CLK 7.77 
19 *243:112 *1289:CLK 6.99 
*END

*D_NET *244 0.00868896
*CONN
*I *1346:CLK I *D sky130_fd_sc_hd__dfrtp_1
*I *1327:CLK I *D sky130_fd_sc_hd__dfrtp_1
*I *1329:CLK I *D sky130_fd_sc_hd__dfrtp_1
*I *1332:CLK I *D sky130_fd_sc_hd__dfrtp_1
*I *1330:CLK I *D sky130_fd_sc_hd__dfrtp_1
*I *1331:CLK I *D sky130_fd_sc_hd__dfrtp_1
*I *1357:X O *D sky130_fd_sc_hd__clkbuf_16
*CAP
1 *1346:CLK 9.86908e-05
2 *1327:CLK 0
3 *1329:CLK 4.50947e-05
4 *1332:CLK 0.000267208
5 *1330:CLK 4.64208e-05
6 *1331:CLK 0.000455209
7 *1357:X 6.24124e-05
8 *244:50 0.000803132
9 *244:46 0.00112847
10 *244:36 0.000988023
11 *244:10 0.00113645
12 *244:8 0.000948923
13 *1329:CLK *1329:RESET_B 2.75229e-05
14 *1330:CLK *1237:A0 0.000159499
15 *1330:CLK *1330:RESET_B 0.000272899
16 *1331:CLK *1160:A0 9.72333e-05
17 *1331:CLK *1330:RESET_B 4.05363e-05
18 *1332:CLK *1332:RESET_B 0
19 *244:8 *1094:B_N 3.45679e-05
20 *244:10 *1091:A_N 7.61149e-05
21 *244:10 *1233:A1 0
22 *244:10 *275:14 3.79514e-05
23 *244:10 *363:12 0.000155948
24 *244:36 *1091:A_N 0.000106655
25 *244:46 *1327:RESET_B 0.000243224
26 *244:46 *361:12 1.76277e-05
27 *244:50 *1181:A0 7.23602e-05
28 *244:50 *1229:A1 0.000136052
29 *244:50 *1234:A 0
30 *244:50 *1327:RESET_B 0
31 *244:50 *256:673 0
32 *244:50 *361:12 0
33 *1230:A *244:50 0.000136052
34 *1235:S *1331:CLK 6.97118e-05
35 *1329:D *1332:CLK 0
36 *1329:D *244:50 0
37 *1332:D *1332:CLK 7.84279e-05
38 *99:57 *1346:CLK 0.000221469
39 *102:38 *1346:CLK 0.000282164
40 *102:38 *244:36 0.000442912
41 *126:115 *244:10 0
42 *126:115 *244:36 0
43 *126:117 *244:10 0
*RES
1 *1357:X *244:8 4.395 
2 *244:8 *244:10 10.815 
3 *244:10 *1331:CLK 10.2 
4 *244:10 *1330:CLK 6.12 
5 *244:8 *244:36 6.225 
6 *244:36 *244:46 10.52 
7 *244:46 *244:50 10.265 
8 *244:50 *1332:CLK 7.785 
9 *244:50 *1329:CLK 4.41 
10 *244:46 *1327:CLK 1.6 
11 *244:36 *1346:CLK 7.02 
*END

*D_NET *245 0.00795368
*CONN
*I *1333:CLK I *D sky130_fd_sc_hd__dfrtp_1
*I *1343:CLK I *D sky130_fd_sc_hd__dfrtp_1
*I *1339:CLK I *D sky130_fd_sc_hd__dfrtp_1
*I *1338:CLK I *D sky130_fd_sc_hd__dfrtp_1
*I *1345:CLK I *D sky130_fd_sc_hd__dfrtp_1
*I *1337:CLK I *D sky130_fd_sc_hd__dfrtp_1
*I *1344:CLK I *D sky130_fd_sc_hd__dfrtp_1
*I *1358:X O *D sky130_fd_sc_hd__clkbuf_16
*CAP
1 *1333:CLK 0.000146747
2 *1343:CLK 0.00069199
3 *1339:CLK 0
4 *1338:CLK 0
5 *1345:CLK 5.77757e-05
6 *1337:CLK 8.19837e-05
7 *1344:CLK 3.19447e-05
8 *1358:X 0.000633418
9 *245:69 0.00115788
10 *245:52 0.000635781
11 *245:36 5.77757e-05
12 *245:34 0.000618355
13 *245:14 0.000256503
14 *245:8 0.00107771
15 *245:8 *1269:B1 0.000198945
16 *245:8 *1404:A 2.75145e-05
17 *245:14 *1344:RESET_B 0
18 *245:34 *1249:A0 2.20014e-05
19 *1111:A *1333:CLK 0.000154931
20 *1111:A *245:69 0.000395877
21 *1113:A *1333:CLK 0.000196048
22 *1249:A1 *245:14 2.97746e-05
23 *1249:A1 *245:34 0.000235339
24 *1250:A *1337:CLK 4.77719e-05
25 *1250:A *245:14 5.59913e-05
26 *1254:A1 *1333:CLK 0.000148041
27 *1254:A1 *245:52 0
28 *1254:A1 *245:69 0.000366041
29 *1255:A *245:52 4.92561e-05
30 *1337:D *1337:CLK 2.86975e-05
31 *1339:D *245:69 2.68464e-05
32 *1343:D *1343:CLK 1.54954e-05
33 *30:12 *245:52 5.98273e-05
34 *30:20 *245:34 6.69573e-05
35 *30:20 *245:52 0.000150406
36 *97:14 *1333:CLK 0.000156019
37 *97:30 *1333:CLK 5.83121e-06
38 *116:29 *1343:CLK 6.81928e-05
*RES
1 *1358:X *245:8 8.965 
2 *245:8 *245:14 6.655 
3 *245:14 *1344:CLK 2.05 
4 *245:14 *1337:CLK 3.085 
5 *245:8 *245:34 6.5 
6 *245:34 *245:36 2 
7 *245:36 *1345:CLK 2.395 
8 *245:36 *1338:CLK 1.6 
9 *245:34 *245:52 8.225 
10 *245:52 *1339:CLK 1.6 
11 *245:52 *245:69 9.785 
12 *245:69 *1343:CLK 12.24 
13 *245:69 *1333:CLK 8.37 
*END

*D_NET *246 0.0088507
*CONN
*I *1347:CLK I *D sky130_fd_sc_hd__dfrtp_1
*I *1321:CLK I *D sky130_fd_sc_hd__dfrtp_1
*I *1319:CLK I *D sky130_fd_sc_hd__dfrtp_1
*I *1318:CLK I *D sky130_fd_sc_hd__dfrtp_1
*I *1320:CLK I *D sky130_fd_sc_hd__dfrtp_1
*I *1323:CLK I *D sky130_fd_sc_hd__dfrtp_1
*I *1359:X O *D sky130_fd_sc_hd__clkbuf_16
*CAP
1 *1347:CLK 0.000546006
2 *1321:CLK 1.2989e-05
3 *1319:CLK 0
4 *1318:CLK 0.00032118
5 *1320:CLK 0
6 *1323:CLK 2.54748e-05
7 *1359:X 0.000104196
8 *246:58 0.000636913
9 *246:45 0.000744763
10 *246:26 0.000904955
11 *246:20 0.00115182
12 *246:6 0.00133859
13 *1318:CLK *1134:A0 0.000196084
14 *1318:CLK *1213:A0 0.000197822
15 *1318:CLK *1215:A0 8.52972e-05
16 *1318:CLK *372:10 4.58691e-05
17 *1323:CLK *1209:A0 5.83121e-06
18 *1323:CLK *1221:A1 2.75229e-05
19 *1347:CLK *256:451 0.000102256
20 *246:20 *367:23 1.77945e-05
21 *246:26 *1102:B 0
22 *246:26 *1221:A1 0
23 *246:45 *1136:A0 8.41384e-05
24 *246:45 *1215:A1 9.90589e-05
25 *246:45 *1392:A 2.87867e-05
26 *246:58 *1319:RESET_B 0.000348921
27 *246:58 *372:10 1.34618e-05
28 *1108:A1 *1347:CLK 8.65905e-05
29 *1108:B1 *1347:CLK 9.50342e-06
30 *1108:D1 *1347:CLK 0.000293719
31 *1218:A *1321:CLK 1.20052e-05
32 *1218:A *246:20 1.14192e-05
33 *1218:A *246:26 0.000140269
34 *1318:D *1318:CLK 2.86975e-05
35 *1319:D *1318:CLK 3.75882e-06
36 *1320:D *246:58 0.000165649
37 *1321:D *246:20 5.30404e-05
38 *1321:D *246:26 2.88357e-05
39 *1387:A *246:26 0
40 *1387:A *246:45 0
41 *1390:A *1318:CLK 0.000122197
42 *1433:A *1347:CLK 7.05395e-05
43 *98:14 *1347:CLK 0.000106837
44 *99:43 *246:20 0.000106242
45 *102:30 *1347:CLK 3.91211e-05
46 *102:38 *1347:CLK 9.07255e-05
47 *124:6 *1347:CLK 0.00013824
48 *126:48 *1347:CLK 8.42161e-05
49 *126:199 *246:26 0.00013475
50 *126:203 *246:26 0
51 *126:216 *246:45 0
52 *126:223 *1318:CLK 2.10905e-05
53 *126:233 *1318:CLK 6.35235e-05
*RES
1 *1359:X *246:6 2.74 
2 *246:6 *246:20 13.96 
3 *246:20 *246:26 10.205 
4 *246:26 *1323:CLK 4.05 
5 *246:26 *246:45 9.83 
6 *246:45 *1320:CLK 1.6 
7 *246:45 *246:58 7.83 
8 *246:58 *1318:CLK 13.13 
9 *246:58 *1319:CLK 1.6 
10 *246:20 *1321:CLK 1.96 
11 *246:6 *1347:CLK 17.735 
*END

*D_NET *247 0.00608644
*CONN
*I *1334:CLK I *D sky130_fd_sc_hd__dfrtp_1
*I *1336:CLK I *D sky130_fd_sc_hd__dfrtp_1
*I *1335:CLK I *D sky130_fd_sc_hd__dfrtp_1
*I *1341:CLK I *D sky130_fd_sc_hd__dfrtp_1
*I *1342:CLK I *D sky130_fd_sc_hd__dfrtp_1
*I *1340:CLK I *D sky130_fd_sc_hd__dfrtp_4
*I *1348:CLK I *D sky130_fd_sc_hd__dfrtp_1
*I *1360:X O *D sky130_fd_sc_hd__clkbuf_16
*CAP
1 *1334:CLK 0
2 *1336:CLK 0.000205674
3 *1335:CLK 0
4 *1341:CLK 0
5 *1342:CLK 0.000438079
6 *1340:CLK 2.36112e-05
7 *1348:CLK 0.000240852
8 *1360:X 0.000485649
9 *247:68 0.000524198
10 *247:64 0.000567005
11 *247:36 0.000480584
12 *247:32 0.000566432
13 *247:21 0.000407422
14 *247:8 0.000834866
15 *1342:CLK *256:315 0.000163199
16 *1342:CLK *256:327 0
17 *1348:CLK *256:339 0
18 *247:32 *256:327 2.85764e-05
19 *247:32 *256:335 0
20 *247:64 *256:327 7.66385e-05
21 *247:68 *1086:A 0.000135667
22 *1244:A *247:64 7.08493e-05
23 *1244:A *247:68 4.11336e-05
24 *1246:A *247:68 4.11308e-05
25 *1258:A2 *247:8 1.1392e-05
26 *1258:B1 *247:8 5.30673e-05
27 *1266:A1 *1342:CLK 0
28 *1268:A2 *1342:CLK 0
29 *1336:D *1336:CLK 0.000110627
30 *1336:D *247:68 5.38678e-05
31 *1340:D *1340:CLK 2.68526e-05
32 *1341:D *1342:CLK 2.86975e-05
33 *1341:D *247:36 6.60042e-05
34 *1342:D *1342:CLK 3.23663e-05
35 *1348:D *1348:CLK 1.87038e-05
36 *30:58 *247:68 2.32546e-05
37 *30:71 *247:68 5.6144e-05
38 *99:8 *1342:CLK 4.8854e-05
39 *99:8 *247:36 9.28507e-05
40 *102:14 *247:64 5.83121e-06
41 *102:14 *247:68 0
42 *126:64 *1348:CLK 2.97522e-05
43 *127:60 *1348:CLK 0
44 *127:60 *247:21 0
45 *139:27 *247:8 9.66106e-05
*RES
1 *1360:X *247:8 10.605 
2 *247:8 *1348:CLK 7.485 
3 *247:8 *247:21 1.635 
4 *247:21 *1340:CLK 4.05 
5 *247:21 *247:32 4.44 
6 *247:32 *247:36 3.485 
7 *247:36 *1342:CLK 12.605 
8 *247:36 *1341:CLK 1.6 
9 *247:32 *247:64 6.755 
10 *247:64 *247:68 8.48 
11 *247:68 *1335:CLK 3.6 
12 *247:68 *1336:CLK 7.53 
13 *247:64 *1334:CLK 1.6 
*END

*D_NET *248 0.000224117
*CONN
*I *1076:A I *D sky130_fd_sc_hd__buf_4
*I *1408:X O *D sky130_fd_sc_hd__clkbuf_1
*CAP
1 *1076:A 9.259e-05
2 *1408:X 9.259e-05
3 *1291:D *1076:A 3.89366e-05
*RES
1 *1408:X *1076:A 8.94 
*END

*D_NET *249 0.00484422
*CONN
*I *1176:A2 I *D sky130_fd_sc_hd__a21o_1
*I *1170:A2 I *D sky130_fd_sc_hd__a22o_1
*I *1171:A2 I *D sky130_fd_sc_hd__o221a_2
*I *1409:X O *D sky130_fd_sc_hd__buf_1
*CAP
1 *1176:A2 0.000377052
2 *1170:A2 7.93664e-05
3 *1171:A2 0.000126722
4 *1409:X 0.000980104
5 *249:16 0.000327555
6 *249:14 0.00147862
7 *1170:A2 *1166:A 4.66108e-05
8 *1170:A2 *1174:A1 0.000101193
9 *1171:A2 *1174:A1 0.000165867
10 *1176:A2 *1166:A 8.33066e-06
11 *1176:A2 *1176:B1 2.63097e-05
12 *1176:A2 *1361:A 0.000104264
13 *249:14 *1302:RESET_B 0.000134526
14 *249:16 *1166:A 0.000244007
15 *249:16 *1174:A1 6.24991e-05
16 *1170:A1 *1170:A2 0.000157299
17 *1171:A1 *1170:A2 8.23457e-05
18 *1171:A1 *1171:A2 9.14714e-05
19 *1171:B1 *249:16 9.1483e-06
20 *1190:A *249:14 4.89395e-05
21 *1302:D *249:14 4.77807e-05
22 *1306:D *249:14 2.01737e-05
23 *1316:CLK *1176:A2 2.31331e-05
24 *1316:D *1176:A2 9.54813e-05
25 *93:147 *1176:A2 5.4155e-06
*RES
1 *1409:X *249:14 16.77 
2 *249:14 *249:16 3.165 
3 *249:16 *1171:A2 6.3 
4 *249:16 *1170:A2 6.24 
5 *249:14 *1176:A2 9.555 
*END

*D_NET *250 0.000894892
*CONN
*I *1186:B1 I *D sky130_fd_sc_hd__o211a_1
*I *1189:A1 I *D sky130_fd_sc_hd__mux2_1
*I *1410:X O *D sky130_fd_sc_hd__clkbuf_1
*CAP
1 *1186:B1 3.96732e-05
2 *1189:A1 5.06588e-05
3 *1410:X 0.000273333
4 *250:8 0.000363665
5 *1186:C1 *1186:B1 2.10583e-05
6 *1186:C1 *250:8 1.83756e-05
7 *1187:B2 *1186:B1 3.26889e-05
8 *1189:S *1189:A1 9.54399e-05
*RES
1 *1410:X *250:8 5.515 
2 *250:8 *1189:A1 6.725 
3 *250:8 *1186:B1 2.41 
*END

*D_NET *251 0.00273248
*CONN
*I *1187:B1 I *D sky130_fd_sc_hd__a22o_1
*I *1186:A1 I *D sky130_fd_sc_hd__o211a_1
*I *1191:A1 I *D sky130_fd_sc_hd__mux2_1
*I *1411:X O *D sky130_fd_sc_hd__buf_1
*CAP
1 *1187:B1 0.000276286
2 *1186:A1 0.0001167
3 *1191:A1 0
4 *1411:X 0.000195173
5 *251:15 0.000453687
6 *251:8 0.000255874
7 *1187:B1 *1187:A2 5.02394e-05
8 *251:8 *1184:A 0.000201503
9 *251:8 *1191:A0 4.82919e-05
10 *251:15 *1191:A0 0.000164874
11 *1186:C1 *1186:A1 5.05437e-05
12 *1187:B2 *1186:A1 5.30673e-05
13 *1188:A1 *1187:B1 0.00013141
14 *1188:B1 *1187:B1 6.03947e-06
15 *1188:B2 *1187:B1 0.000279017
16 *1188:C1 *1187:B1 0
17 *1189:S *1186:A1 0
18 *1192:A *251:8 4.99619e-05
19 *93:147 *1186:A1 0.00015997
20 *93:164 *1186:A1 6.75724e-05
21 *179:8 *1187:B1 3.13354e-05
22 *180:12 *1186:A1 5.42473e-05
23 *180:12 *251:8 2.66586e-05
24 *180:12 *251:15 1.90662e-05
25 *184:12 *1187:B1 1.32463e-05
26 *184:12 *251:15 2.77183e-05
*RES
1 *1411:X *251:8 5.515 
2 *251:8 *1191:A1 1.6 
3 *251:8 *251:15 1.83 
4 *251:15 *1186:A1 9.05 
5 *251:15 *1187:B1 7.75 
*END

*D_NET *252 0.00327602
*CONN
*I *1193:A2 I *D sky130_fd_sc_hd__a21o_1
*I *1187:A2 I *D sky130_fd_sc_hd__a22o_1
*I *1188:A2 I *D sky130_fd_sc_hd__o221a_2
*I *1412:X O *D sky130_fd_sc_hd__buf_1
*CAP
1 *1193:A2 7.20616e-05
2 *1187:A2 0.000246854
3 *1188:A2 7.26067e-05
4 *1412:X 0.000728601
5 *252:12 0.000610056
6 *252:10 0.00109126
7 *252:12 *1398:A 0
8 *1187:B1 *1187:A2 5.02394e-05
9 *1187:B2 *1188:A2 0
10 *1188:A1 *1187:A2 0.000247221
11 *1188:B1 *1188:A2 1.70935e-05
12 *1308:D *252:12 0
13 *1312:CLK *252:12 0
14 *93:164 *1188:A2 0
15 *93:164 *1193:A2 7.11365e-05
16 *93:164 *252:12 0
17 *93:168 *252:10 2.23253e-05
18 *179:8 *1187:A2 4.65706e-05
19 *242:75 *252:12 0
*RES
1 *1412:X *252:10 12.075 
2 *252:10 *252:12 4.3125 
3 *252:12 *1188:A2 4.5375 
4 *252:12 *1187:A2 7.44 
5 *252:10 *1193:A2 5.1 
*END

*D_NET *253 0.00376227
*CONN
*I *1200:A1 I *D sky130_fd_sc_hd__mux2_1
*I *1129:B1 I *D sky130_fd_sc_hd__o211a_1
*I *1413:X O *D sky130_fd_sc_hd__clkbuf_1
*CAP
1 *1200:A1 0.000292282
2 *1129:B1 0.000149196
3 *1413:X 0.000941391
4 *253:12 0.00138287
5 *253:12 *352:6 3.04958e-05
6 *1129:A2 *1129:B1 0.000193461
7 *1129:A2 *1200:A1 0.000239704
8 *1129:C1 *253:12 3.52742e-05
9 *1131:B1 *253:12 3.54721e-05
10 *1201:A *253:12 1.93384e-05
11 *1202:S *253:12 0.000121032
12 *1312:CLK *253:12 4.86642e-05
13 *1313:CLK *253:12 0.000122202
14 *1313:D *253:12 8.20398e-05
15 *145:39 *1200:A1 6.88421e-05
*RES
1 *1413:X *253:12 17.51 
2 *253:12 *1129:B1 3.955 
3 *253:12 *1200:A1 9.845 
*END

*D_NET *254 0.00352564
*CONN
*I *1202:A1 I *D sky130_fd_sc_hd__mux2_1
*I *1130:B1 I *D sky130_fd_sc_hd__a22o_1
*I *1129:A1 I *D sky130_fd_sc_hd__o211a_1
*I *1414:X O *D sky130_fd_sc_hd__buf_1
*CAP
1 *1202:A1 0
2 *1130:B1 0.000340059
3 *1129:A1 0.000205859
4 *1414:X 0.000611302
5 *254:12 0.000598296
6 *254:10 0.000663681
7 *1129:A1 *353:8 0
8 *1130:B1 *1130:A2 0.000301701
9 *1130:B1 *1202:A0 6.52349e-05
10 *1130:B1 *1397:A 5.4155e-06
11 *1130:B1 *255:23 5.75722e-05
12 *254:10 *1126:A 2.30292e-05
13 *254:12 *1126:A 0
14 *254:12 *1131:A2 0
15 *1130:A1 *1130:B1 1.72945e-05
16 *1202:S *1129:A1 1.65192e-05
17 *1202:S *1130:B1 4.82863e-05
18 *1202:S *254:12 4.18603e-06
19 *1203:A *254:10 0
20 *1204:A2 *1129:A1 6.86785e-05
21 *1204:A2 *1130:B1 8.49205e-05
22 *1415:A *254:10 4.99619e-05
23 *93:168 *1129:A1 8.55298e-05
24 *140:14 *254:10 0.000278111
25 *140:14 *254:12 0
*RES
1 *1414:X *254:10 13.185 
2 *254:10 *254:12 0.87 
3 *254:12 *1129:A1 7.53 
4 *254:12 *1130:B1 11.235 
5 *254:10 *1202:A1 3.6 
*END

*D_NET *255 0.00324425
*CONN
*I *1130:A2 I *D sky130_fd_sc_hd__a22o_1
*I *1131:A2 I *D sky130_fd_sc_hd__o221a_2
*I *1204:A1 I *D sky130_fd_sc_hd__a21o_1
*I *1415:X O *D sky130_fd_sc_hd__buf_1
*CAP
1 *1130:A2 7.72307e-05
2 *1131:A2 0.000206991
3 *1204:A1 0
4 *1415:X 0.000140644
5 *255:23 0.000697789
6 *255:12 0.000554212
7 *255:12 *1204:B1 8.8266e-05
8 *255:23 *1202:A0 0.000200615
9 *255:23 *1204:B1 0.000114912
10 *255:23 *1394:A 2.75145e-05
11 *1130:A1 *1130:A2 4.60394e-05
12 *1130:B1 *1130:A2 0.000301701
13 *1130:B1 *255:23 5.75722e-05
14 *1131:A1 *1131:A2 3.21517e-05
15 *1131:B1 *1131:A2 4.28112e-06
16 *1202:S *1131:A2 8.16453e-05
17 *1203:A *255:23 0.000163199
18 *1204:A2 *255:23 0.00021257
19 *1313:D *255:12 0
20 *1414:A *255:12 0
21 *140:14 *1130:A2 0.000236918
22 *254:12 *1131:A2 0
*RES
1 *1415:X *255:12 7.61 
2 *255:12 *1204:A1 1.6 
3 *255:12 *255:23 8.16 
4 *255:23 *1131:A2 9.365 
5 *255:23 *1130:A2 4.825 
*END

*D_NET *256 0.0766396
*CONN
*I *1313:RESET_B I *D sky130_fd_sc_hd__dfrtp_1
*I *1314:RESET_B I *D sky130_fd_sc_hd__dfrtp_1
*I *1307:RESET_B I *D sky130_fd_sc_hd__dfrtp_1
*I *1351:RESET_B I *D sky130_fd_sc_hd__dfrtp_4
*I *1304:RESET_B I *D sky130_fd_sc_hd__dfrtp_1
*I *1350:RESET_B I *D sky130_fd_sc_hd__dfrtp_4
*I *1330:RESET_B I *D sky130_fd_sc_hd__dfrtp_1
*I *1331:RESET_B I *D sky130_fd_sc_hd__dfrtp_1
*I *1298:RESET_B I *D sky130_fd_sc_hd__dfrtp_1
*I *1297:RESET_B I *D sky130_fd_sc_hd__dfrtp_1
*I *1349:RESET_B I *D sky130_fd_sc_hd__dfrtp_4
*I *1287:RESET_B I *D sky130_fd_sc_hd__dfrtp_1
*I *1327:RESET_B I *D sky130_fd_sc_hd__dfrtp_1
*I *1328:RESET_B I *D sky130_fd_sc_hd__dfrtp_1
*I *1305:RESET_B I *D sky130_fd_sc_hd__dfrtp_1
*I *1332:RESET_B I *D sky130_fd_sc_hd__dfrtp_1
*I *1329:RESET_B I *D sky130_fd_sc_hd__dfrtp_1
*I *1299:RESET_B I *D sky130_fd_sc_hd__dfrtp_1
*I *1306:RESET_B I *D sky130_fd_sc_hd__dfrtp_1
*I *1308:RESET_B I *D sky130_fd_sc_hd__dfrtp_1
*I *1312:RESET_B I *D sky130_fd_sc_hd__dfrtp_1
*I *1290:RESET_B I *D sky130_fd_sc_hd__dfrtp_1
*I *1288:RESET_B I *D sky130_fd_sc_hd__dfrtp_1
*I *1317:RESET_B I *D sky130_fd_sc_hd__dfrtp_1
*I *1315:RESET_B I *D sky130_fd_sc_hd__dfrtp_1
*I *1311:RESET_B I *D sky130_fd_sc_hd__dfrtp_1
*I *1347:RESET_B I *D sky130_fd_sc_hd__dfrtp_1
*I *1346:RESET_B I *D sky130_fd_sc_hd__dfrtp_1
*I *1345:RESET_B I *D sky130_fd_sc_hd__dfrtp_1
*I *1344:RESET_B I *D sky130_fd_sc_hd__dfrtp_1
*I *1343:RESET_B I *D sky130_fd_sc_hd__dfrtp_1
*I *1289:RESET_B I *D sky130_fd_sc_hd__dfrtp_1
*I *1318:RESET_B I *D sky130_fd_sc_hd__dfrtp_1
*I *1342:RESET_B I *D sky130_fd_sc_hd__dfrtp_1
*I *1341:RESET_B I *D sky130_fd_sc_hd__dfrtp_1
*I *1336:RESET_B I *D sky130_fd_sc_hd__dfrtp_1
*I *1335:RESET_B I *D sky130_fd_sc_hd__dfrtp_1
*I *1334:RESET_B I *D sky130_fd_sc_hd__dfrtp_1
*I *1340:RESET_B I *D sky130_fd_sc_hd__dfrtp_4
*I *1333:RESET_B I *D sky130_fd_sc_hd__dfrtp_1
*I *1339:RESET_B I *D sky130_fd_sc_hd__dfrtp_1
*I *1338:RESET_B I *D sky130_fd_sc_hd__dfrtp_1
*I *1337:RESET_B I *D sky130_fd_sc_hd__dfrtp_1
*I *1348:RESET_B I *D sky130_fd_sc_hd__dfrtp_1
*I *1319:RESET_B I *D sky130_fd_sc_hd__dfrtp_1
*I *1320:RESET_B I *D sky130_fd_sc_hd__dfrtp_1
*I *1323:RESET_B I *D sky130_fd_sc_hd__dfrtp_1
*I *1322:RESET_B I *D sky130_fd_sc_hd__dfrtp_1
*I *1321:RESET_B I *D sky130_fd_sc_hd__dfrtp_1
*I *1326:RESET_B I *D sky130_fd_sc_hd__dfrtp_1
*I *1325:RESET_B I *D sky130_fd_sc_hd__dfrtp_1
*I *1310:RESET_B I *D sky130_fd_sc_hd__dfrtp_1
*I *1324:RESET_B I *D sky130_fd_sc_hd__dfrtp_1
*I *1303:RESET_B I *D sky130_fd_sc_hd__dfrtp_1
*I *1309:RESET_B I *D sky130_fd_sc_hd__dfrtp_1
*I *1316:RESET_B I *D sky130_fd_sc_hd__dfrtp_1
*I *1302:RESET_B I *D sky130_fd_sc_hd__dfrtp_1
*I *1300:RESET_B I *D sky130_fd_sc_hd__dfrtp_1
*I *1301:RESET_B I *D sky130_fd_sc_hd__dfrtp_1
*I *1295:RESET_B I *D sky130_fd_sc_hd__dfrtp_1
*I *1296:RESET_B I *D sky130_fd_sc_hd__dfrtp_1
*I *1294:RESET_B I *D sky130_fd_sc_hd__dfrtp_1
*I *1293:RESET_B I *D sky130_fd_sc_hd__dfrtp_1
*I *1292:RESET_B I *D sky130_fd_sc_hd__dfrtp_1
*I *1291:RESET_B I *D sky130_fd_sc_hd__dfrtp_1
*I *1416:X O *D sky130_fd_sc_hd__buf_12
*CAP
1 *1313:RESET_B 0.000125489
2 *1314:RESET_B 5.25312e-05
3 *1307:RESET_B 1.26107e-05
4 *1351:RESET_B 0.000251238
5 *1304:RESET_B 0.000203665
6 *1350:RESET_B 0
7 *1330:RESET_B 0.000533173
8 *1331:RESET_B 0
9 *1298:RESET_B 2.90408e-05
10 *1297:RESET_B 2.45658e-05
11 *1349:RESET_B 0.00026444
12 *1287:RESET_B 0.000204117
13 *1327:RESET_B 0.000601926
14 *1328:RESET_B 3.70658e-05
15 *1305:RESET_B 3.24744e-05
16 *1332:RESET_B 0.000244252
17 *1329:RESET_B 0.000595812
18 *1299:RESET_B 0.000134057
19 *1306:RESET_B 0.000301496
20 *1308:RESET_B 0.00064119
21 *1312:RESET_B 0.000521828
22 *1290:RESET_B 9.18172e-06
23 *1288:RESET_B 0.000393051
24 *1317:RESET_B 0.000103427
25 *1315:RESET_B 0
26 *1311:RESET_B 4.71253e-05
27 *1347:RESET_B 0.000113493
28 *1346:RESET_B 5.75361e-05
29 *1345:RESET_B 0
30 *1344:RESET_B 0.000274846
31 *1343:RESET_B 1.48281e-05
32 *1289:RESET_B 0.000275026
33 *1318:RESET_B 0
34 *1342:RESET_B 1.29492e-05
35 *1341:RESET_B 7.23333e-06
36 *1336:RESET_B 0.000237855
37 *1335:RESET_B 5.72541e-05
38 *1334:RESET_B 5.67587e-05
39 *1340:RESET_B 0
40 *1333:RESET_B 0
41 *1339:RESET_B 0
42 *1338:RESET_B 0
43 *1337:RESET_B 0.000258546
44 *1348:RESET_B 6.35948e-05
45 *1319:RESET_B 0.0010922
46 *1320:RESET_B 0
47 *1323:RESET_B 0
48 *1322:RESET_B 0.000201921
49 *1321:RESET_B 0
50 *1326:RESET_B 1.85291e-05
51 *1325:RESET_B 6.44028e-06
52 *1310:RESET_B 0.00108551
53 *1324:RESET_B 0.000384057
54 *1303:RESET_B 7.04637e-05
55 *1309:RESET_B 0.00024759
56 *1316:RESET_B 0.000620173
57 *1302:RESET_B 0.000586222
58 *1300:RESET_B 7.53708e-05
59 *1301:RESET_B 5.15876e-05
60 *1295:RESET_B 8.42947e-05
61 *1296:RESET_B 2.75854e-05
62 *1294:RESET_B 0.000417562
63 *1293:RESET_B 4.84833e-05
64 *1292:RESET_B 0.000227637
65 *1291:RESET_B 0
66 *1416:X 0.000146829
67 *256:821 0.000512165
68 *256:811 0.000686656
69 *256:755 0.0011523
70 *256:737 0.0011913
71 *256:722 0.000903526
72 *256:707 0.000819849
73 *256:705 0.000408725
74 *256:673 0.000863808
75 *256:659 0.00034882
76 *256:639 0.000643821
77 *256:627 0.00115592
78 *256:621 0.00146588
79 *256:607 0.00126939
80 *256:551 0.000594221
81 *256:537 0.000658393
82 *256:525 0.000505624
83 *256:480 0.000889921
84 *256:465 0.00112771
85 *256:459 0.000790458
86 *256:451 0.00120637
87 *256:404 0.000564127
88 *256:394 0.0006313
89 *256:357 0.000502819
90 *256:355 0.000516742
91 *256:353 0.000621115
92 *256:339 0.000631478
93 *256:335 0.000408736
94 *256:331 0.0007025
95 *256:327 0.000707581
96 *256:315 0.00166737
97 *256:301 0.00142139
98 *256:287 0.00115506
99 *256:280 0.000283083
100 *256:273 0.000403255
101 *256:263 0.000585402
102 *256:256 0.000451649
103 *256:246 0.000486967
104 *256:236 0.000259668
105 *256:234 0.00196409
106 *256:184 0.000544719
107 *256:170 0.000442273
108 *256:168 0.000541621
109 *256:158 0.000673448
110 *256:152 0.000280418
111 *256:150 0.000806118
112 *256:126 0.000725489
113 *256:112 0.00105928
114 *256:100 0.000592073
115 *256:86 0.000409688
116 *256:76 0.000717909
117 *256:60 0.000506276
118 *256:58 0.000764651
119 *256:54 0.00063971
120 *256:37 0.00057111
121 *256:23 0.00103726
122 *256:8 0.000614723
123 *1288:RESET_B *1134:A0 3.1548e-05
124 *1289:RESET_B *1389:A 7.63128e-05
125 *1290:RESET_B *1136:A0 4.20673e-05
126 *1294:RESET_B *1372:A 0
127 *1295:RESET_B *334:6 5.83121e-06
128 *1297:RESET_B *324:10 1.15688e-05
129 *1298:RESET_B *1371:A 1.34636e-05
130 *1300:RESET_B *339:8 2.65814e-06
131 *1301:RESET_B *1168:A 1.0063e-05
132 *1302:RESET_B *341:8 3.06833e-05
133 *1303:RESET_B *325:61 4.82532e-05
134 *1303:RESET_B *325:76 3.11107e-05
135 *1307:RESET_B *1184:A 4.2854e-05
136 *1308:RESET_B *1183:A 4.19286e-05
137 *1308:RESET_B *1383:A 2.92496e-05
138 *1308:RESET_B *347:6 4.66108e-05
139 *1309:RESET_B *1377:A 2.75145e-05
140 *1309:RESET_B *325:76 1.93834e-05
141 *1311:RESET_B *1227:A1 1.08758e-05
142 *1312:RESET_B *1128:A 6.18661e-05
143 *1312:RESET_B *1200:A0 0.000197862
144 *1312:RESET_B *1400:A 0.000234517
145 *1313:RESET_B *353:8 3.24721e-05
146 *1317:RESET_B *1209:A0 1.04258e-05
147 *1319:RESET_B *371:10 1.55837e-05
148 *1319:RESET_B *372:10 7.5687e-06
149 *1322:RESET_B *1219:A0 0.000119066
150 *1324:RESET_B *1194:A0 4.77807e-05
151 *1325:RESET_B *364:23 2.65337e-05
152 *1326:RESET_B *1378:A 4.24575e-05
153 *1327:RESET_B *1177:A0 0.000179119
154 *1327:RESET_B *1365:A 9.12494e-06
155 *1327:RESET_B *361:12 0.000222743
156 *1328:RESET_B *1231:A0 2.65337e-05
157 *1329:RESET_B *1181:A0 0.00034946
158 *1329:RESET_B *1382:A 8.65961e-05
159 *1330:RESET_B *1097:A 0.000117763
160 *1330:RESET_B *1235:A0 0.000135009
161 *1330:RESET_B *1237:A0 0.000117
162 *1330:RESET_B *1363:A 0
163 *1330:RESET_B *358:6 2.69217e-05
164 *1332:RESET_B *1239:A0 0.000117112
165 *1336:RESET_B *1245:A0 0.000155169
166 *1337:RESET_B *1252:A0 0
167 *1337:RESET_B *1393:A 0
168 *1344:RESET_B *1269:B1 0
169 *1346:RESET_B *1273:B1 3.6355e-05
170 *1346:RESET_B *376:10 0.000118246
171 *256:23 *1140:A 0
172 *256:54 *333:8 9.36949e-05
173 *256:60 *1403:A 7.06347e-05
174 *256:76 *1150:A 4.77807e-05
175 *256:76 *1403:A 0.000131168
176 *256:76 *334:6 4.04857e-05
177 *256:86 *1157:A0 3.78419e-05
178 *256:86 *1168:A 0.000120888
179 *256:86 *314:10 0.000153727
180 *256:100 *1168:A 9.54399e-05
181 *256:112 *1167:A 1.22762e-05
182 *256:112 *1168:A 0
183 *256:112 *339:8 1.1392e-05
184 *256:126 *341:8 0.000118246
185 *256:150 *1132:A1 0.000121072
186 *256:150 *1205:A0 3.64384e-05
187 *256:150 *1205:A1 0.00011543
188 *256:150 *1362:A 6.06594e-05
189 *256:152 *1207:A0 0.000145836
190 *256:158 *325:88 0.000243624
191 *256:168 *324:95 0.00029755
192 *256:168 *325:76 0.000105266
193 *256:168 *325:88 0
194 *256:170 *325:76 0.000235955
195 *256:184 *1194:A0 7.15381e-05
196 *256:184 *325:76 5.19531e-05
197 *256:234 *1391:A 4.94457e-05
198 *256:234 *364:23 0.000145879
199 *256:246 *1106:B 0.000160967
200 *256:246 *1225:A1 0
201 *256:256 *1378:A 4.23878e-05
202 *256:273 *369:12 0
203 *256:280 *1215:A1 3.97106e-05
204 *256:301 *371:10 8.93847e-05
205 *256:315 *370:25 0
206 *256:353 *355:10 0.000142789
207 *256:355 *355:10 5.20332e-05
208 *256:355 *355:18 1.29987e-05
209 *256:357 *1252:A0 0
210 *256:404 *1243:A0 0
211 *256:404 *1245:A0 9.71067e-05
212 *256:451 *364:23 0.000158529
213 *256:459 *1247:A 2.11776e-05
214 *256:459 *1425:A 0
215 *256:459 *355:48 1.27334e-05
216 *256:465 *355:18 0.00081147
217 *256:480 *355:18 0.000113242
218 *256:525 *1132:A1 0.000175966
219 *256:525 *1207:A0 2.02052e-05
220 *256:525 *277:10 0.000127106
221 *256:537 *1132:A1 5.30144e-05
222 *256:537 *1136:A1 0
223 *256:607 *1149:A 2.30292e-05
224 *256:607 *1159:A2 0.000161985
225 *256:621 *1078:A 7.7713e-05
226 *256:621 *1283:B1 0
227 *256:627 *1110:A 7.5103e-05
228 *256:673 *1231:A0 2.92488e-05
229 *256:705 *1283:B1 0.000344657
230 *256:707 *1283:B1 0.000114524
231 *256:722 *1160:A1 1.83756e-05
232 *256:722 *1282:B 0.000184866
233 *256:722 *324:10 2.4997e-05
234 *256:737 *1371:A 2.42591e-05
235 *256:755 *1363:A 0
236 *256:755 *1371:A 0.000172747
237 *256:811 *1184:A 7.23635e-05
238 *256:821 *1191:A0 0.000162332
239 o_index[2] *256:357 0.000108647
240 *1092:A1 *256:459 0
241 *1108:A1 *256:451 1.90762e-05
242 *1108:C1 *256:451 5.35181e-06
243 *1124:D1 *256:459 1.87328e-05
244 *1125:A2 *256:480 0
245 *1133:A *256:537 7.93923e-05
246 *1137:A *1312:RESET_B 5.3468e-05
247 *1137:A *256:537 3.75882e-06
248 *1137:A *256:551 2.87133e-05
249 *1143:B1 *256:37 0.000131525
250 *1144:S *256:23 9.14035e-05
251 *1147:A *256:23 2.68111e-05
252 *1147:A *256:37 3.18891e-05
253 *1154:B2 *256:60 4.83032e-05
254 *1155:S *1294:RESET_B 0
255 *1159:A1 *1296:RESET_B 3.96748e-05
256 *1175:A *256:86 0
257 *1178:A *1303:RESET_B 0.000224694
258 *1181:S *256:639 0
259 *1181:S *256:659 0
260 *1181:S *256:673 0
261 *1197:A *256:234 0
262 *1206:A *256:150 6.92161e-05
263 *1207:S *1308:RESET_B 8.59365e-05
264 *1207:S *256:126 0.000227817
265 *1208:A *1306:RESET_B 2.00026e-05
266 *1210:A *1308:RESET_B 0
267 *1219:S *256:150 3.1208e-05
268 *1226:A *256:234 4.54499e-05
269 *1235:S *1330:RESET_B 0.000158311
270 *1242:A *256:353 0.000127181
271 *1242:A *256:355 5.31814e-05
272 *1243:A1 *256:394 0
273 *1243:A1 *256:404 0
274 *1248:A2 *256:465 0.000126928
275 *1249:A1 *1344:RESET_B 0
276 *1249:A1 *256:480 0
277 *1252:A1 *1337:RESET_B 0.000159964
278 *1252:A1 *256:355 8.33575e-05
279 *1252:A1 *256:357 0.000596991
280 *1268:A2 *256:315 1.43521e-05
281 *1268:B1 *256:315 0
282 *1270:A *1344:RESET_B 4.43871e-06
283 *1270:A *256:480 0.000110315
284 *1276:A1 *256:459 0.000109479
285 *1276:A1 *256:465 1.79483e-05
286 *1277:B *256:459 7.81583e-05
287 *1286:B *1351:RESET_B 3.35088e-05
288 *1286:B *256:621 0
289 *1287:CLK *256:621 4.75951e-05
290 *1288:CLK *1288:RESET_B 0.000232411
291 *1288:D *1288:RESET_B 1.42598e-05
292 *1291:D *256:23 0
293 *1292:CLK *256:8 0
294 *1292:CLK *256:23 0.000114649
295 *1292:D *1292:RESET_B 8.53011e-05
296 *1295:CLK *1295:RESET_B 7.78022e-05
297 *1295:CLK *256:86 1.46781e-05
298 *1296:CLK *1304:RESET_B 1.3582e-05
299 *1296:CLK *256:607 6.57665e-06
300 *1297:D *1297:RESET_B 2.05571e-05
301 *1297:D *256:722 5.34699e-05
302 *1298:CLK *256:737 9.47316e-05
303 *1298:D *256:737 4.77757e-05
304 *1300:CLK *1300:RESET_B 4.51129e-05
305 *1301:CLK *1301:RESET_B 0
306 *1301:CLK *256:86 3.09233e-05
307 *1301:CLK *256:100 8.59365e-05
308 *1301:D *256:86 0
309 *1302:D *1306:RESET_B 4.76051e-05
310 *1303:D *1303:RESET_B 0.000114524
311 *1304:D *256:621 7.23533e-05
312 *1306:CLK *1306:RESET_B 0.000156195
313 *1323:D *256:280 3.86607e-05
314 *1324:CLK *1324:RESET_B 8.45899e-05
315 *1324:D *1324:RESET_B 0.00015856
316 *1325:CLK *256:234 0.000171036
317 *1325:D *256:234 6.12973e-05
318 *1328:D *1327:RESET_B 6.23262e-05
319 *1328:D *1328:RESET_B 3.09011e-05
320 *1328:D *256:673 9.09788e-06
321 *1329:CLK *1329:RESET_B 2.75229e-05
322 *1329:D *1332:RESET_B 0
323 *1330:CLK *1330:RESET_B 0.000272899
324 *1331:CLK *1330:RESET_B 4.05363e-05
325 *1332:CLK *1332:RESET_B 0
326 *1336:D *1336:RESET_B 7.72463e-05
327 *1336:D *256:404 4.58101e-05
328 *1342:CLK *256:315 0.000163199
329 *1342:CLK *256:327 0
330 *1342:D *256:315 2.75229e-05
331 *1344:D *1344:RESET_B 0
332 *1347:CLK *256:451 0.000102256
333 *1347:D *1347:RESET_B 3.57349e-05
334 *1347:D *256:451 8.52845e-05
335 *1347:D *256:459 2.79046e-05
336 *1348:CLK *256:339 0
337 *1348:D *1348:RESET_B 1.71542e-05
338 *1349:D *1349:RESET_B 0
339 *1349:D *256:707 0
340 *1351:D *1351:RESET_B 0.000118428
341 *1354:A *256:621 0.000232258
342 *1385:A *1289:RESET_B 5.68531e-05
343 *1385:A *256:280 4.76051e-05
344 *1385:A *256:287 4.90272e-05
345 *1433:A *256:451 0.000121019
346 *30:10 *256:353 0
347 *30:10 *256:355 0
348 *30:12 *256:355 0
349 *30:58 *256:335 0.000182261
350 *30:58 *256:339 0.000108278
351 *30:58 *256:394 0.00010543
352 *30:58 *256:404 3.69334e-05
353 *30:71 *256:404 6.52819e-05
354 *93:6 *256:23 4.80285e-05
355 *93:10 *256:23 2.7441e-05
356 *93:53 *256:23 2.83921e-05
357 *93:66 *1294:RESET_B 0
358 *93:114 *1296:RESET_B 4.66108e-05
359 *93:120 *256:76 9.10613e-05
360 *93:120 *256:86 0
361 *93:120 *256:112 0.000231571
362 *93:139 *1306:RESET_B 0.000133453
363 *93:139 *256:112 0.000318294
364 *93:164 *256:821 0.000229084
365 *94:25 *256:621 3.9987e-05
366 *97:14 *256:339 0.000178569
367 *99:8 *1341:RESET_B 1.34636e-05
368 *99:8 *256:327 1.33269e-05
369 *99:8 *256:331 1.98623e-05
370 *99:8 *256:394 2.05049e-05
371 *99:43 *256:256 0
372 *102:14 *256:315 0
373 *102:14 *256:327 4.70326e-05
374 *124:6 *256:451 1.07348e-05
375 *124:14 *256:459 9.08126e-05
376 *124:34 *1347:RESET_B 1.26623e-05
377 *126:10 *256:627 3.56402e-05
378 *126:10 *256:639 0
379 *126:115 *1332:RESET_B 0
380 *126:117 *1332:RESET_B 0
381 *126:169 *256:170 0
382 *126:169 *256:184 0
383 *126:180 *256:168 0
384 *126:180 *256:170 0
385 *126:203 *256:263 0.000221373
386 *126:203 *256:273 0.000153801
387 *126:216 *256:273 0.000212505
388 *126:216 *256:280 0.000301756
389 *126:233 *256:315 0.000116853
390 *127:10 *256:480 0.000221194
391 *127:34 *256:480 0.000175219
392 *127:47 *256:480 0.000136874
393 *134:12 *1344:RESET_B 0
394 *149:10 *256:37 2.41307e-05
395 *158:12 *256:76 4.77807e-05
396 *162:44 *1296:RESET_B 0.000115315
397 *162:55 *1327:RESET_B 0
398 *169:12 *256:112 1.7386e-05
399 *184:34 *1308:RESET_B 0.000163012
400 *213:14 *256:459 3.72952e-05
401 *213:14 *256:465 5.43021e-05
402 *239:50 *256:246 5.53549e-06
403 *239:87 *256:621 9.37731e-05
404 *239:122 *256:246 2.02588e-05
405 *240:12 *1294:RESET_B 0.000339893
406 *240:14 *1293:RESET_B 8.07502e-05
407 *240:34 *1293:RESET_B 3.63576e-05
408 *240:51 *1351:RESET_B 0
409 *240:51 *256:58 0.000319855
410 *240:51 *256:60 6.08449e-05
411 *240:51 *256:607 1.55649e-05
412 *240:64 *256:607 7.18558e-05
413 *240:90 *256:621 7.77943e-06
414 *240:92 *256:621 7.85442e-06
415 *240:94 *256:707 0
416 *241:18 *1349:RESET_B 0
417 *241:18 *256:707 0
418 *242:60 *1306:RESET_B 7.19206e-05
419 *242:79 *256:811 6.6564e-05
420 *242:81 *1307:RESET_B 2.20753e-05
421 *242:81 *256:811 0.000200156
422 *243:43 *256:126 0
423 *243:49 *256:150 8.65155e-05
424 *243:86 *1308:RESET_B 0
425 *243:86 *256:126 0
426 *243:97 *1308:RESET_B 0
427 *243:112 *1290:RESET_B 4.20673e-05
428 *244:46 *1327:RESET_B 0.000243224
429 *244:50 *1327:RESET_B 0
430 *244:50 *256:673 0
431 *245:14 *1344:RESET_B 0
432 *246:58 *1319:RESET_B 0.000348921
433 *247:32 *256:327 2.85764e-05
434 *247:32 *256:335 0
435 *247:64 *256:327 7.66385e-05
436 *249:14 *1302:RESET_B 0.000134526
*RES
1 *1416:X *256:8 6 
2 *256:8 *1291:RESET_B 2 
3 *256:8 *256:23 11.41 
4 *256:23 *1292:RESET_B 4.9325 
5 *256:23 *256:37 5.46 
6 *256:37 *1293:RESET_B 3.0875 
7 *256:37 *1294:RESET_B 6.185 
8 *1294:RESET_B *256:54 3.8475 
9 *256:54 *256:58 5.675 
10 *256:58 *256:60 2.91 
11 *256:60 *1296:RESET_B 3.0875 
12 *256:60 *256:76 7.55 
13 *256:76 *1295:RESET_B 1.4325 
14 *256:76 *256:86 8.99 
15 *256:86 *1301:RESET_B 2.7575 
16 *256:86 *256:100 3.125 
17 *256:100 *1300:RESET_B 1.0875 
18 *256:100 *256:112 11.345 
19 *256:112 *1302:RESET_B 6.8075 
20 *1302:RESET_B *256:126 8.2175 
21 *256:126 *1316:RESET_B 3.3575 
22 *1316:RESET_B *256:150 11.075 
23 *256:150 *256:152 2.0175 
24 *256:152 *256:158 6.035 
25 *256:158 *256:168 10.7 
26 *256:168 *256:170 2.7825 
27 *256:170 *1309:RESET_B 5.39 
28 *256:170 *256:184 1.9575 
29 *256:184 *1303:RESET_B 4.91 
30 *256:184 *1324:RESET_B 8.1575 
31 *256:168 *1310:RESET_B 2 
32 *1310:RESET_B *256:234 15.7275 
33 *256:234 *256:236 0.36 
34 *256:236 *1325:RESET_B 0.3975 
35 *256:236 *256:246 6.185 
36 *256:246 *1326:RESET_B 2.3975 
37 *256:246 *256:256 4.185 
38 *256:256 *1321:RESET_B 2 
39 *256:256 *256:263 4.185 
40 *256:263 *1322:RESET_B 5.1575 
41 *256:263 *256:273 4.185 
42 *256:273 *1323:RESET_B 2 
43 *256:273 *256:280 5.46 
44 *256:280 *1320:RESET_B 2 
45 *256:280 *256:287 1.125 
46 *256:287 *1319:RESET_B 12.2375 
47 *1319:RESET_B *256:301 6.4475 
48 *256:301 *256:315 22.275 
49 *256:315 *256:327 11.26 
50 *256:327 *256:331 2.535 
51 *256:331 *256:335 5.93 
52 *256:335 *256:339 6.44 
53 *256:339 *1348:RESET_B 1.4475 
54 *256:339 *256:353 8.45 
55 *256:353 *256:355 5.46 
56 *256:355 *256:357 6.99 
57 *256:357 *1337:RESET_B 6.74 
58 *256:357 *1338:RESET_B 2 
59 *256:355 *1339:RESET_B 2 
60 *256:353 *1333:RESET_B 2 
61 *256:335 *1340:RESET_B 2 
62 *256:331 *256:394 6.995 
63 *256:394 *1334:RESET_B 2.7425 
64 *256:394 *256:404 5.46 
65 *256:404 *1335:RESET_B 2.7425 
66 *256:404 *1336:RESET_B 6.9275 
67 *256:327 *1341:RESET_B 0.3975 
68 *256:315 *1342:RESET_B 0.3975 
69 *256:301 *1318:RESET_B 2 
70 *256:287 *1289:RESET_B 6.7025 
71 *256:234 *256:451 10.455 
72 *256:451 *256:459 6.995 
73 *256:459 *256:465 2.11063 
74 *256:465 *1343:RESET_B 2.7325 
75 *256:465 *256:480 11.4003 
76 *256:480 *1344:RESET_B 6.44 
77 *256:480 *1345:RESET_B 2 
78 *256:459 *1346:RESET_B 3.4325 
79 *256:451 *1347:RESET_B 1.5525 
80 *256:158 *1311:RESET_B 1.1025 
81 *256:152 *1315:RESET_B 2 
82 *256:150 *256:525 5.0775 
83 *256:525 *1317:RESET_B 3.3575 
84 *256:525 *256:537 4.185 
85 *256:537 *1288:RESET_B 7.0025 
86 *256:537 *256:551 1.125 
87 *256:551 *1290:RESET_B 2.3975 
88 *256:551 *1312:RESET_B 11.6825 
89 *256:126 *1308:RESET_B 7.9475 
90 *256:112 *1306:RESET_B 7.9475 
91 *256:58 *256:607 7.385 
92 *256:607 *256:621 15.7 
93 *256:621 *256:627 11.435 
94 *256:627 *1299:RESET_B 3.8675 
95 *256:627 *256:639 3.165 
96 *256:639 *1329:RESET_B 8.6075 
97 *1329:RESET_B *1332:RESET_B 8.3425 
98 *256:639 *256:659 1.38 
99 *256:659 *1305:RESET_B 2.3975 
100 *256:659 *256:673 3.72 
101 *256:673 *1328:RESET_B 2.7575 
102 *256:673 *1327:RESET_B 14.7275 
103 *256:621 *1287:RESET_B 0.3975 
104 *1287:RESET_B *256:705 6.185 
105 *256:705 *256:707 3.93 
106 *256:707 *1349:RESET_B 6.44 
107 *256:707 *256:722 10.1875 
108 *256:722 *1297:RESET_B 2.4875 
109 *256:722 *256:737 8.9975 
110 *256:737 *1298:RESET_B 0.7575 
111 *256:737 *256:755 10.85 
112 *256:755 *1331:RESET_B 2 
113 *256:755 *1330:RESET_B 13.9925 
114 *256:705 *1350:RESET_B 2 
115 *256:607 *1304:RESET_B 2.5875 
116 *256:54 *1351:RESET_B 8.2075 
117 *1308:RESET_B *256:811 5.9175 
118 *256:811 *1307:RESET_B 0.3975 
119 *256:811 *256:821 8.735 
120 *256:821 *1314:RESET_B 2.7425 
121 *256:821 *1313:RESET_B 4.19 
*END

*D_NET *257 0.00119726
*CONN
*I *1426:A I *D sky130_fd_sc_hd__clkbuf_4
*I *1368:A I *D sky130_fd_sc_hd__dlygate4sd3_1
*I *1333:Q O *D sky130_fd_sc_hd__dfrtp_1
*CAP
1 *1426:A 0.000171497
2 *1368:A 8.34255e-05
3 *1333:Q 0.00020251
4 *257:10 0.000457433
5 *1426:A *1081:A 7.89689e-05
6 *1426:A *355:10 0
7 *257:10 *1241:A0 2.87867e-05
8 *257:10 *355:10 0
9 o_bucket[0] *1426:A 0.000119521
10 o_bucket[0] *257:10 5.51158e-05
*RES
1 *1333:Q *257:10 6.72 
2 *257:10 *1368:A 4.74 
3 *257:10 *1426:A 7.785 
*END

*D_NET *258 0.000771578
*CONN
*I *1366:A I *D sky130_fd_sc_hd__dlygate4sd3_1
*I *1427:A I *D sky130_fd_sc_hd__buf_2
*I *1334:Q O *D sky130_fd_sc_hd__dfrtp_1
*CAP
1 *1366:A 0.000206986
2 *1427:A 0.000167572
3 *1334:Q 0
4 *258:6 0.000374558
5 *1366:A *1243:A0 0
6 o_bucket[1] *1427:A 2.24628e-05
7 *1243:A1 *1366:A 0
8 *1243:A1 *1427:A 0
*RES
1 *1334:Q *258:6 3.6 
2 *258:6 *1427:A 6.51 
3 *258:6 *1366:A 7.02 
*END

*D_NET *259 0.00151307
*CONN
*I *1141:B1 I *D sky130_fd_sc_hd__o211a_1
*I *1144:A1 I *D sky130_fd_sc_hd__mux2_1
*I *1417:X O *D sky130_fd_sc_hd__clkbuf_1
*CAP
1 *1141:B1 0
2 *1144:A1 0.000166323
3 *1417:X 0.000244067
4 *259:10 0.000410389
5 *1144:A1 *1140:A 8.7181e-05
6 *259:10 *1141:A2 9.12671e-06
7 *259:10 *270:14 8.54281e-05
8 *1141:A1 *259:10 7.41437e-06
9 *1142:B1 *259:10 0.000131329
10 *1147:A *1144:A1 4.41857e-05
11 *93:53 *1144:A1 0.00032763
*RES
1 *1417:X *259:10 6.22 
2 *259:10 *1144:A1 9.53 
3 *259:10 *1141:B1 1.6 
*END

*D_NET *260 0.000866999
*CONN
*I *1428:A I *D sky130_fd_sc_hd__clkbuf_4
*I *1370:A I *D sky130_fd_sc_hd__dlygate4sd3_1
*I *1335:Q O *D sky130_fd_sc_hd__dfrtp_1
*CAP
1 *1428:A 0.000258536
2 *1370:A 0
3 *1335:Q 9.86962e-05
4 *260:8 0.000357232
5 *1428:A *1432:A 0.000135382
6 o_bucket[2] *1428:A 1.71512e-05
*RES
1 *1335:Q *260:8 5.235 
2 *260:8 *1370:A 3.6 
3 *260:8 *1428:A 8.235 
*END

*D_NET *261 0.00238754
*CONN
*I *1393:A I *D sky130_fd_sc_hd__dlygate4sd3_1
*I *1429:A I *D sky130_fd_sc_hd__clkbuf_4
*I *1337:Q O *D sky130_fd_sc_hd__dfrtp_1
*CAP
1 *1393:A 0.000239914
2 *1429:A 0.000924392
3 *1337:Q 0
4 *261:6 0.00116431
5 *1393:A *1430:A 0
6 o_index[1] *1429:A 5.89329e-05
7 *1337:RESET_B *1393:A 0
*RES
1 *1337:Q *261:6 3.6 
2 *261:6 *1429:A 19.515 
3 *261:6 *1393:A 7.395 
*END

*D_NET *262 0.00146435
*CONN
*I *1381:A I *D sky130_fd_sc_hd__dlygate4sd3_1
*I *1430:A I *D sky130_fd_sc_hd__buf_2
*I *1338:Q O *D sky130_fd_sc_hd__dfrtp_1
*CAP
1 *1381:A 0.000158948
2 *1430:A 0.000573229
3 *1338:Q 0
4 *262:6 0.000732177
5 *1381:A *1252:A0 0
6 *1430:A *1252:A0 0
7 *1393:A *1430:A 0
*RES
1 *1338:Q *262:6 3.6 
2 *262:6 *1430:A 13.14 
3 *262:6 *1381:A 6.255 
*END

*D_NET *263 0.00145268
*CONN
*I *1431:A I *D sky130_fd_sc_hd__clkbuf_4
*I *1367:A I *D sky130_fd_sc_hd__dlygate4sd3_1
*I *1339:Q O *D sky130_fd_sc_hd__dfrtp_1
*CAP
1 *1431:A 0.000442277
2 *1367:A 8.57502e-05
3 *1339:Q 0.000198311
4 *263:8 0.000726338
*RES
1 *1339:Q *263:8 4.465 
2 *263:8 *1367:A 3.085 
3 *263:8 *1431:A 8.08 
*END

*D_NET *264 0.0010737
*CONN
*I *1432:A I *D sky130_fd_sc_hd__clkbuf_4
*I *1336:Q O *D sky130_fd_sc_hd__dfrtp_1
*CAP
1 *1432:A 0.000433345
2 *1336:Q 0.000433345
3 o_bucket[2] *1432:A 7.1624e-05
4 *1428:A *1432:A 0.000135382
*RES
1 *1336:Q *1432:A 14.895 
*END

*D_NET *265 0.00157366
*CONN
*I *1118:A2 I *D sky130_fd_sc_hd__a31o_1
*I *1425:X O *D sky130_fd_sc_hd__clkbuf_1
*CAP
1 *1118:A2 0.00033837
2 *1425:X 0.00033837
3 *1089:B1 *1118:A2 0.000133657
4 *1118:B1 *1118:A2 0.000456668
5 *1124:D1 *1118:A2 1.7635e-05
6 *1251:A1 *1118:A2 0
7 *1276:A3 *1118:A2 1.70688e-05
8 *116:16 *1118:A2 4.42148e-05
9 *116:29 *1118:A2 4.89395e-05
10 *126:64 *1118:A2 0.000122331
11 *137:37 *1118:A2 5.64075e-05
*RES
1 *1425:X *1118:A2 14.94 
*END

*D_NET *266 0.00161193
*CONN
*I *1247:A I *D sky130_fd_sc_hd__nand2_1
*I *1425:A I *D sky130_fd_sc_hd__clkbuf_1
*I *1433:X O *D sky130_fd_sc_hd__clkbuf_1
*CAP
1 *1247:A 0.00022517
2 *1425:A 0.000290574
3 *1433:X 0
4 *266:6 0.000515744
5 *1247:A *1123:B1 0
6 *1124:D1 *1247:A 1.08758e-05
7 *1247:B *1247:A 2.85557e-05
8 *1433:A *1425:A 0.00013521
9 *98:14 *1425:A 0
10 *98:18 *1247:A 0
11 *124:14 *1247:A 4.63352e-05
12 *126:48 *1425:A 0.000233561
13 *126:64 *1425:A 5.83949e-05
14 *213:14 *1247:A 4.63281e-05
15 *256:459 *1247:A 2.11776e-05
16 *256:459 *1425:A 0
*RES
1 *1433:X *266:6 3.6 
2 *266:6 *1425:A 9.21 
3 *266:6 *1247:A 7.26386 
*END

*D_NET *267 0.000572343
*CONN
*I *1176:B1 I *D sky130_fd_sc_hd__a21o_1
*I *1361:X O *D sky130_fd_sc_hd__dlygate4sd3_1
*CAP
1 *1176:B1 0.000122889
2 *1361:X 0.000122889
3 *1176:A2 *1176:B1 2.63097e-05
4 *1208:A *1176:B1 1.52352e-05
5 *1302:D *1176:B1 5.18362e-05
6 *1316:D *1176:B1 4.77757e-05
7 *93:139 *1176:B1 9.23635e-05
8 *93:147 *1176:B1 9.53428e-06
9 *242:60 *1176:B1 8.35118e-05
*RES
1 *1361:X *1176:B1 10.335 
*END

*D_NET *268 0.000930728
*CONN
*I *1148:B1 I *D sky130_fd_sc_hd__a21o_1
*I *1372:X O *D sky130_fd_sc_hd__dlygate4sd3_1
*CAP
1 *1148:B1 0.000316284
2 *1372:X 0.000316284
3 *1148:B1 *281:14 3.23663e-05
4 *1148:A1 *1148:B1 0.000179197
5 *1155:S *1148:B1 8.65961e-05
*RES
1 *1372:X *1148:B1 8.405 
*END

*D_NET *269 0.000399309
*CONN
*I *1193:B1 I *D sky130_fd_sc_hd__a21o_1
*I *1383:X O *D sky130_fd_sc_hd__dlygate4sd3_1
*CAP
1 *1193:B1 0.000183893
2 *1383:X 0.000183893
3 *1308:D *1193:B1 3.1522e-05
*RES
1 *1383:X *1193:B1 6.065 
*END

*D_NET *270 0.00264892
*CONN
*I *1142:B2 I *D sky130_fd_sc_hd__a22o_1
*I *1141:A2 I *D sky130_fd_sc_hd__o211a_1
*I *1146:A1 I *D sky130_fd_sc_hd__mux2_1
*I *1418:X O *D sky130_fd_sc_hd__buf_1
*CAP
1 *1142:B2 5.58716e-05
2 *1141:A2 1.34014e-05
3 *1146:A1 0.000278715
4 *1418:X 0.000217615
5 *270:14 0.000507974
6 *270:6 0.000489343
7 *1142:B2 *1143:A2 2.95618e-05
8 *1146:A1 *1139:A 0.000220953
9 *1146:A1 *1146:A0 4.89295e-05
10 *1141:A1 *1141:A2 9.12671e-06
11 *1141:C1 *270:14 1.64141e-05
12 *1142:B1 *1146:A1 1.74876e-05
13 *1142:B1 *270:14 8.66104e-05
14 *1147:A *1146:A1 0.000381907
15 *93:53 *270:14 2.09958e-05
16 *150:6 *1146:A1 0.000149894
17 *154:27 *1146:A1 9.56017e-06
18 *259:10 *1141:A2 9.12671e-06
19 *259:10 *270:14 8.54281e-05
*RES
1 *1418:X *270:6 4.12 
2 *270:6 *270:14 7.72 
3 *270:14 *1146:A1 8.86 
4 *270:14 *1141:A2 1.96 
5 *270:6 *1142:B2 2.92 
*END

*D_NET *271 0.000426141
*CONN
*I *1204:B1 I *D sky130_fd_sc_hd__a21o_1
*I *1394:X O *D sky130_fd_sc_hd__dlygate4sd3_1
*CAP
1 *1204:B1 6.7348e-05
2 *1394:X 6.7348e-05
3 *1204:A2 *1204:B1 8.8266e-05
4 *255:12 *1204:B1 8.8266e-05
5 *255:23 *1204:B1 0.000114912
*RES
1 *1394:X *1204:B1 5.39 
*END

*D_NET *272 0.000262493
*CONN
*I *1159:B1 I *D sky130_fd_sc_hd__a21o_1
*I *1403:X O *D sky130_fd_sc_hd__dlygate4sd3_1
*CAP
1 *1159:B1 0.0001089
2 *1403:X 0.0001089
3 *1159:B1 *1159:A2 3.03541e-05
4 *1159:A1 *1159:B1 1.43396e-05
*RES
1 *1403:X *1159:B1 5.045 
*END

*D_NET *273 0.000652132
*CONN
*I *1269:B1 I *D sky130_fd_sc_hd__o21ai_1
*I *1404:X O *D sky130_fd_sc_hd__dlygate4sd3_1
*CAP
1 *1269:B1 0.000164104
2 *1404:X 0.000164104
3 *1121:A2 *1269:B1 0
4 *1270:A *1269:B1 0
5 *1344:D *1269:B1 4.94404e-05
6 *1344:RESET_B *1269:B1 0
7 *134:12 *1269:B1 7.55391e-05
8 *245:8 *1269:B1 0.000198945
*RES
1 *1404:X *1269:B1 10.92 
*END

*D_NET *274 7.44014e-05
*CONN
*I *1271:B1 I *D sky130_fd_sc_hd__o21ai_1
*I *1405:X O *D sky130_fd_sc_hd__dlygate4sd3_1
*CAP
1 *1271:B1 1.9266e-05
2 *1405:X 1.9266e-05
3 *1271:B1 *1405:A 5.83121e-06
4 *1272:B *1271:B1 3.00381e-05
*RES
1 *1405:X *1271:B1 3.65 
*END

*D_NET *275 0.00280672
*CONN
*I *1239:A1 I *D sky130_fd_sc_hd__mux2_1
*I *1164:A0 I *D sky130_fd_sc_hd__mux2_1
*I *1406:X O *D sky130_fd_sc_hd__dlygate4sd3_1
*CAP
1 *1239:A1 0
2 *1164:A0 0.000679225
3 *1406:X 0.000270235
4 *275:14 0.00094946
5 *1164:A0 *1162:A1 4.21518e-05
6 *1164:A0 *1164:A1 4.89295e-05
7 *275:14 *1406:A 0.000531985
8 *1164:S *1164:A0 8.64421e-05
9 *1239:S *275:14 0.000160338
10 *244:10 *275:14 3.79514e-05
*RES
1 *1406:X *275:14 12.275 
2 *275:14 *1164:A0 16.58 
3 *275:14 *1239:A1 1.6 
*END

*D_NET *276 0.000178589
*CONN
*I *1240:A I *D sky130_fd_sc_hd__clkbuf_1
*I *1407:X O *D sky130_fd_sc_hd__dlygate4sd3_1
*CAP
1 *1240:A 6.48297e-05
2 *1407:X 6.48297e-05
3 *1332:D *1240:A 4.89295e-05
*RES
1 *1407:X *1240:A 4.34 
*END

*D_NET *277 0.00214694
*CONN
*I *1219:A1 I *D sky130_fd_sc_hd__mux2_1
*I *1207:A0 I *D sky130_fd_sc_hd__mux2_1
*I *1362:X O *D sky130_fd_sc_hd__dlygate4sd3_1
*CAP
1 *1219:A1 0
2 *1207:A0 0.000535876
3 *1362:X 0.000124216
4 *277:10 0.000660092
5 *1207:A0 *1207:A1 0.000387141
6 *1207:S *1207:A0 4.77769e-05
7 *1219:S *1207:A0 4.05363e-05
8 *1315:CLK *1207:A0 5.81494e-05
9 *243:62 *277:10 0
10 *256:152 *1207:A0 0.000145836
11 *256:525 *1207:A0 2.02052e-05
12 *256:525 *277:10 0.000127106
*RES
1 *1362:X *277:10 5.685 
2 *277:10 *1207:A0 15.03 
3 *277:10 *1219:A1 3.6 
*END

*D_NET *278 0.00210236
*CONN
*I *1237:A1 I *D sky130_fd_sc_hd__mux2_1
*I *1162:A0 I *D sky130_fd_sc_hd__mux2_1
*I *1363:X O *D sky130_fd_sc_hd__dlygate4sd3_1
*CAP
1 *1237:A1 0.00035596
2 *1162:A0 0.000376753
3 *1363:X 0
4 *278:4 0.000732713
5 *1162:A0 *1238:A 3.07842e-05
6 *1163:A *1162:A0 0.000123955
7 *1237:S *1237:A1 5.19006e-06
8 *1298:D *1162:A0 9.77048e-06
9 *1331:D *1162:A0 4.89395e-05
10 *1331:D *1237:A1 0.000383682
11 *1364:A *1237:A1 3.46161e-05
*RES
1 *1363:X *278:4 1.6 
2 *278:4 *1162:A0 7.42 
3 *278:4 *1237:A1 6.805 
*END

*D_NET *279 0.000744878
*CONN
*I *1238:A I *D sky130_fd_sc_hd__clkbuf_1
*I *1364:X O *D sky130_fd_sc_hd__dlygate4sd3_1
*CAP
1 *1238:A 0.000250568
2 *1364:X 0.000250568
3 *1162:A0 *1238:A 3.07842e-05
4 *1331:D *1238:A 0.000181667
5 *1364:A *1238:A 3.12916e-05
*RES
1 *1364:X *1238:A 12.24 
*END

*D_NET *280 0.00215939
*CONN
*I *1229:A1 I *D sky130_fd_sc_hd__mux2_1
*I *1177:A0 I *D sky130_fd_sc_hd__mux2_1
*I *1365:X O *D sky130_fd_sc_hd__dlygate4sd3_1
*CAP
1 *1229:A1 0.00023526
2 *1177:A0 0.000484388
3 *1365:X 0
4 *280:4 0.000719648
5 *1177:A0 *324:74 2.69153e-05
6 *1230:A *1229:A1 1.10951e-05
7 *1327:RESET_B *1177:A0 0.000179119
8 *126:25 *1229:A1 0.00027964
9 *162:44 *1177:A0 1.90907e-05
10 *162:55 *1177:A0 6.81824e-05
11 *244:50 *1229:A1 0.000136052
*RES
1 *1365:X *280:4 1.6 
2 *280:4 *1177:A0 9.295 
3 *280:4 *1229:A1 10.625 
*END

*D_NET *281 0.00230396
*CONN
*I *1142:A2 I *D sky130_fd_sc_hd__a22o_1
*I *1143:A2 I *D sky130_fd_sc_hd__o221a_2
*I *1148:A2 I *D sky130_fd_sc_hd__a21o_1
*I *1419:X O *D sky130_fd_sc_hd__buf_1
*CAP
1 *1142:A2 0
2 *1143:A2 0.000259068
3 *1148:A2 0
4 *1419:X 0.000240477
5 *281:27 0.000478283
6 *281:14 0.000459692
7 *1142:A1 *1143:A2 7.57142e-06
8 *1142:B1 *281:27 5.31158e-06
9 *1142:B2 *1143:A2 2.95618e-05
10 *1143:B2 *1143:A2 0.000101107
11 *1143:C1 *1143:A2 4.65924e-05
12 *1148:A1 *281:14 3.65689e-05
13 *1148:A1 *281:27 8.65905e-05
14 *1148:B1 *281:14 3.23663e-05
15 *1156:A *281:14 4.99619e-05
16 *1156:A *281:27 2.30292e-05
17 *1293:D *281:27 0
18 *1294:CLK *281:14 9.54469e-05
19 *1294:CLK *281:27 0
20 *1419:A *281:14 0
21 *93:66 *281:27 0.000352328
*RES
1 *1419:X *281:14 9.95 
2 *281:14 *1148:A2 1.6 
3 *281:14 *281:27 8.98 
4 *281:27 *1143:A2 5.605 
5 *281:27 *1142:A2 1.6 
*END

*D_NET *282 0.000377888
*CONN
*I *1243:A0 I *D sky130_fd_sc_hd__mux2_1
*I *1366:X O *D sky130_fd_sc_hd__dlygate4sd3_1
*CAP
1 *1243:A0 0.000164303
2 *1366:X 0.000164303
3 *1243:S *1243:A0 4.92827e-05
4 *1366:A *1243:A0 0
5 *256:404 *1243:A0 0
*RES
1 *1366:X *1243:A0 9.735 
*END

*D_NET *283 0.000470122
*CONN
*I *1254:A0 I *D sky130_fd_sc_hd__mux2_1
*I *1367:X O *D sky130_fd_sc_hd__dlygate4sd3_1
*CAP
1 *1254:A0 0.000199538
2 *1367:X 0.000199538
3 *1254:A1 *1254:A0 4.89395e-05
4 *1254:S *1254:A0 2.21074e-05
*RES
1 *1367:X *1254:A0 6.065 
*END

*D_NET *284 0.000661056
*CONN
*I *1241:A0 I *D sky130_fd_sc_hd__mux2_1
*I *1368:X O *D sky130_fd_sc_hd__dlygate4sd3_1
*CAP
1 *1241:A0 0.000174316
2 *1368:X 0.000174316
3 *1241:A0 *355:10 0.00025146
4 o_bucket[0] *1241:A0 0
5 *1241:S *1241:A0 3.21772e-05
6 *257:10 *1241:A0 2.87867e-05
*RES
1 *1368:X *1241:A0 10.905 
*END

*D_NET *285 0.00247573
*CONN
*I *1285:A I *D sky130_fd_sc_hd__nor2_1
*I *1369:X O *D sky130_fd_sc_hd__dlygate4sd3_1
*CAP
1 *1285:A 0.000819296
2 *1369:X 0.000819296
3 *1285:A *1077:B 4.06448e-06
4 *1285:A *1077:C 7.04589e-05
5 *1285:A *324:31 0.000639809
6 *1077:A *1285:A 0.000122801
*RES
1 *1369:X *1285:A 18 
*END

*D_NET *286 0.00100973
*CONN
*I *1245:A0 I *D sky130_fd_sc_hd__mux2_1
*I *1370:X O *D sky130_fd_sc_hd__dlygate4sd3_1
*CAP
1 *1245:A0 0.000308696
2 *1370:X 0.000308696
3 *1336:D *1245:A0 0.000140063
4 *1336:RESET_B *1245:A0 0.000155169
5 *256:404 *1245:A0 9.71067e-05
*RES
1 *1370:X *1245:A0 12.63 
*END

*D_NET *287 0.00337065
*CONN
*I *1235:A1 I *D sky130_fd_sc_hd__mux2_1
*I *1160:A0 I *D sky130_fd_sc_hd__mux2_1
*I *1371:X O *D sky130_fd_sc_hd__dlygate4sd3_1
*CAP
1 *1235:A1 0.000203889
2 *1160:A0 0.00109851
3 *1371:X 6.45843e-05
4 *287:10 0.00136698
5 *1160:A0 *1160:A1 4.89295e-05
6 *1160:S *1160:A0 2.20014e-05
7 *1235:S *1160:A0 0.000177483
8 *1235:S *1235:A1 0.000291044
9 *1331:CLK *1160:A0 9.72333e-05
*RES
1 *1371:X *287:10 6.47 
2 *287:10 *1160:A0 17.35 
3 *287:10 *1235:A1 5.53 
*END

*D_NET *288 6.04296e-05
*CONN
*I *1236:A I *D sky130_fd_sc_hd__clkbuf_1
*I *1373:X O *D sky130_fd_sc_hd__dlygate4sd3_1
*CAP
1 *1236:A 3.02148e-05
2 *1373:X 3.02148e-05
*RES
1 *1373:X *1236:A 3.65 
*END

*D_NET *289 0.00131558
*CONN
*I *1227:A1 I *D sky130_fd_sc_hd__mux2_1
*I *1198:A0 I *D sky130_fd_sc_hd__mux2_1
*I *1374:X O *D sky130_fd_sc_hd__dlygate4sd3_1
*CAP
1 *1227:A1 0.0003456
2 *1198:A0 0.000199555
3 *1374:X 0
4 *289:4 0.000545155
5 *1227:A1 *325:88 9.10613e-05
6 *1198:S *1198:A0 3.03684e-05
7 *1311:RESET_B *1227:A1 1.08758e-05
8 *126:184 *1227:A1 4.8962e-05
9 *126:199 *1227:A1 4.40028e-05
*RES
1 *1374:X *289:4 1.6 
2 *289:4 *1198:A0 3.775 
3 *289:4 *1227:A1 10.73 
*END

*D_NET *290 0.00127283
*CONN
*I *1231:A1 I *D sky130_fd_sc_hd__mux2_1
*I *1179:A0 I *D sky130_fd_sc_hd__mux2_1
*I *1375:X O *D sky130_fd_sc_hd__dlygate4sd3_1
*CAP
1 *1231:A1 0.000110156
2 *1179:A0 0.000347091
3 *1375:X 0
4 *290:4 0.000457247
5 *1179:A0 *1179:A1 0.000122331
6 *1179:A0 *1375:A 4.82919e-05
7 *1231:A1 *1231:A0 0
8 *1179:S *1179:A0 9.16226e-05
9 *1179:S *1231:A1 1.19928e-05
10 *1328:CLK *1231:A1 1.17409e-05
11 *162:55 *1231:A1 7.23602e-05
*RES
1 *1375:X *290:4 1.6 
2 *290:4 *1179:A0 5.845 
3 *290:4 *1231:A1 7.265 
*END

*D_NET *291 0.0034982
*CONN
*I *1283:B1 I *D sky130_fd_sc_hd__a21oi_1
*I *1376:X O *D sky130_fd_sc_hd__dlygate4sd3_1
*CAP
1 *1283:B1 0.00126828
2 *1376:X 0.00126828
3 *1283:B1 *1078:A 0
4 *1283:B1 *1283:A2 8.73389e-06
5 *1283:B1 *326:35 0.000383368
6 *1284:B *1283:B1 2.68464e-05
7 *1304:D *1283:B1 0
8 *1350:D *1283:B1 8.35157e-05
9 *241:10 *1283:B1 0
10 *256:621 *1283:B1 0
11 *256:705 *1283:B1 0.000344657
12 *256:707 *1283:B1 0.000114524
*RES
1 *1376:X *1283:B1 30.93 
*END

*D_NET *292 0.0020614
*CONN
*I *1152:B1 I *D sky130_fd_sc_hd__o211a_1
*I *1155:A1 I *D sky130_fd_sc_hd__mux2_1
*I *1420:X O *D sky130_fd_sc_hd__clkbuf_1
*CAP
1 *1152:B1 6.46455e-05
2 *1155:A1 0.000125532
3 *1420:X 0.00036409
4 *292:8 0.000554268
5 *1152:B1 *1152:A2 9.12671e-06
6 *1152:B1 *303:27 6.72833e-06
7 *1155:A1 *1151:A 0.000362972
8 *1155:A1 *1155:A0 7.23533e-05
9 *1152:C1 *1152:B1 1.19184e-05
10 *1152:C1 *292:8 4.80058e-05
11 *1153:B1 *1152:B1 1.26044e-05
12 *1295:CLK *1155:A1 0.000177568
13 *240:12 *1155:A1 0.000251588
*RES
1 *1420:X *292:8 6.895 
2 *292:8 *1155:A1 10.91 
3 *292:8 *1152:B1 2.755 
*END

*D_NET *293 0.00223819
*CONN
*I *1223:A1 I *D sky130_fd_sc_hd__mux2_1
*I *1194:A0 I *D sky130_fd_sc_hd__mux2_1
*I *1377:X O *D sky130_fd_sc_hd__dlygate4sd3_1
*CAP
1 *1223:A1 0.000253778
2 *1194:A0 0.000478643
3 *1377:X 0
4 *293:4 0.000732421
5 *1194:A0 *1194:A1 0.000381889
6 *1223:A1 *1223:A0 4.89295e-05
7 *1223:S *1223:A1 6.51872e-05
8 *1224:A *1223:A1 0.00012657
9 *1324:CLK *1194:A0 3.14534e-05
10 *1324:D *1194:A0 0
11 *1324:RESET_B *1194:A0 4.77807e-05
12 *256:184 *1194:A0 7.15381e-05
*RES
1 *1377:X *293:4 1.6 
2 *293:4 *1194:A0 12.095 
3 *293:4 *1223:A1 5.86 
*END

*D_NET *294 0.000775872
*CONN
*I *1227:A0 I *D sky130_fd_sc_hd__mux2_1
*I *1378:X O *D sky130_fd_sc_hd__dlygate4sd3_1
*CAP
1 *1227:A0 0.000264853
2 *1378:X 0.000264853
3 *126:199 *1227:A0 0.000246166
*RES
1 *1378:X *1227:A0 7.79 
*END

*D_NET *295 0.00368511
*CONN
*I *1233:A1 I *D sky130_fd_sc_hd__mux2_1
*I *1181:A0 I *D sky130_fd_sc_hd__mux2_1
*I *1379:X O *D sky130_fd_sc_hd__dlygate4sd3_1
*CAP
1 *1233:A1 0.0004939
2 *1181:A0 0.00070642
3 *1379:X 0
4 *295:4 0.00120032
5 *1181:A0 *1181:A1 4.82863e-05
6 *1181:A0 *1234:A 0.000238404
7 *1181:A0 *1382:A 0.000165535
8 *1233:A1 *1094:B_N 0.000235568
9 *1096:B *1233:A1 0
10 *1329:D *1181:A0 0.000124895
11 *1329:RESET_B *1181:A0 0.00034946
12 *1357:A *1233:A1 4.99619e-05
13 *244:10 *1233:A1 0
14 *244:50 *1181:A0 7.23602e-05
*RES
1 *1379:X *295:4 1.6 
2 *295:4 *1181:A0 16.7 
3 *295:4 *1233:A1 13.04 
*END

*D_NET *296 0.00124399
*CONN
*I *1234:A I *D sky130_fd_sc_hd__clkbuf_1
*I *1380:X O *D sky130_fd_sc_hd__dlygate4sd3_1
*CAP
1 *1234:A 0.000321141
2 *1380:X 0.000321141
3 *1234:A *1379:A 0.000123492
4 *1234:A *362:27 0.000239813
5 *1181:A0 *1234:A 0.000238404
6 *244:50 *1234:A 0
*RES
1 *1380:X *1234:A 13.185 
*END

*D_NET *297 0.000783099
*CONN
*I *1252:A0 I *D sky130_fd_sc_hd__mux2_1
*I *1381:X O *D sky130_fd_sc_hd__dlygate4sd3_1
*CAP
1 *1252:A0 0.000313386
2 *1381:X 0.000313386
3 *1252:A0 *1249:A0 0.00011577
4 o_index[2] *1252:A0 4.05569e-05
5 *1337:RESET_B *1252:A0 0
6 *1381:A *1252:A0 0
7 *1430:A *1252:A0 0
8 *256:357 *1252:A0 0
*RES
1 *1381:X *1252:A0 11.94 
*END

*D_NET *298 0.00400761
*CONN
*I *1282:B I *D sky130_fd_sc_hd__xor2_1
*I *1382:X O *D sky130_fd_sc_hd__dlygate4sd3_1
*CAP
1 *1282:B 0.00125495
2 *1382:X 0.00125495
3 *1282:B *1382:A 0.000120874
4 *1282:B *324:10 0
5 *1282:B *325:46 0.000349432
6 *1282:B *326:72 5.74656e-05
7 *1349:D *1282:B 0.000160121
8 *93:23 *1282:B 2.68464e-05
9 *241:10 *1282:B 0.000310135
10 *241:18 *1282:B 0.000287961
11 *256:722 *1282:B 0.000184866
*RES
1 *1382:X *1282:B 29.745 
*END

*D_NET *299 0.00353841
*CONN
*I *1215:A1 I *D sky130_fd_sc_hd__mux2_1
*I *1136:A0 I *D sky130_fd_sc_hd__mux2_1
*I *1384:X O *D sky130_fd_sc_hd__dlygate4sd3_1
*CAP
1 *1215:A1 0.000354511
2 *1136:A0 0.000826864
3 *1384:X 0
4 *299:4 0.00118138
5 *1136:A0 *1134:A1 6.04372e-05
6 *1136:A0 *1136:A1 3.64998e-06
7 *1136:A0 *1384:A 2.93517e-05
8 *1215:A1 *1134:A0 0.000287258
9 *1137:A *1136:A0 6.90254e-05
10 *1290:D *1136:A0 8.33066e-06
11 *1290:RESET_B *1136:A0 4.20673e-05
12 *126:216 *1215:A1 0.000119873
13 *243:112 *1136:A0 0.000332758
14 *246:45 *1136:A0 8.41384e-05
15 *246:45 *1215:A1 9.90589e-05
16 *256:280 *1215:A1 3.97106e-05
*RES
1 *1384:X *299:4 1.6 
2 *299:4 *1136:A0 17.495 
3 *299:4 *1215:A1 16.515 
*END

*D_NET *300 0.000173039
*CONN
*I *1216:A I *D sky130_fd_sc_hd__clkbuf_1
*I *1385:X O *D sky130_fd_sc_hd__dlygate4sd3_1
*CAP
1 *1216:A 4.99941e-05
2 *1385:X 4.99941e-05
3 *1216:A *1389:A 7.30505e-05
*RES
1 *1385:X *1216:A 4.34 
*END

*D_NET *301 0.00337334
*CONN
*I *1221:A1 I *D sky130_fd_sc_hd__mux2_1
*I *1209:A0 I *D sky130_fd_sc_hd__mux2_1
*I *1386:X O *D sky130_fd_sc_hd__dlygate4sd3_1
*CAP
1 *1221:A1 0.000338541
2 *1209:A0 0.00106813
3 *1386:X 0
4 *301:4 0.00140667
5 *1209:A0 *1136:A1 0
6 *1209:A0 *1386:A 0.000180174
7 *1209:A0 *326:48 0
8 *1317:D *1209:A0 5.05521e-05
9 *1317:RESET_B *1209:A0 1.04258e-05
10 *1323:CLK *1209:A0 5.83121e-06
11 *1323:CLK *1221:A1 2.75229e-05
12 *1323:D *1221:A1 2.3706e-05
13 *126:203 *1221:A1 9.50342e-06
14 *126:216 *1221:A1 0.000109009
15 *243:86 *1209:A0 0.000143266
16 *246:26 *1221:A1 0
*RES
1 *1386:X *301:4 1.6 
2 *301:4 *1209:A0 18.725 
3 *301:4 *1221:A1 10.19 
*END

*D_NET *302 0.00028258
*CONN
*I *1222:A I *D sky130_fd_sc_hd__clkbuf_1
*I *1387:X O *D sky130_fd_sc_hd__dlygate4sd3_1
*CAP
1 *1222:A 1.47197e-05
2 *1387:X 1.47197e-05
3 *1222:A *1132:A0 0.00012657
4 *1222:A *1392:A 0.00012657
*RES
1 *1387:X *1222:A 4.34 
*END

*D_NET *303 0.00201056
*CONN
*I *1153:B2 I *D sky130_fd_sc_hd__a22o_1
*I *1152:A2 I *D sky130_fd_sc_hd__o211a_1
*I *1157:A1 I *D sky130_fd_sc_hd__mux2_1
*I *1421:X O *D sky130_fd_sc_hd__buf_1
*CAP
1 *1153:B2 0.000113516
2 *1152:A2 7.70125e-06
3 *1157:A1 4.13864e-05
4 *1421:X 0.000324331
5 *303:27 0.000344764
6 *303:6 0.000589264
7 *1157:A1 *1157:A0 2.88357e-05
8 *303:27 *1157:A0 2.01829e-05
9 *1152:B1 *1152:A2 9.12671e-06
10 *1152:B1 *303:27 6.72833e-06
11 *1152:C1 *1152:A2 5.09686e-06
12 *1152:C1 *303:27 5.19006e-06
13 *1153:A1 *1153:B2 3.12916e-05
14 *1153:B1 *1152:A2 9.12671e-06
15 *1153:B1 *1153:B2 0.000133498
16 *1154:A1 *1153:B2 4.89395e-05
17 *1154:B1 *1153:B2 4.80058e-05
18 *1157:S *303:27 4.6075e-05
19 *1158:A *303:6 5.11067e-05
20 *1295:CLK *303:27 7.03219e-05
21 *1295:D *303:6 5.74817e-06
22 *93:95 *303:27 7.03219e-05
*RES
1 *1421:X *303:6 5.5 
2 *303:6 *1157:A1 2.665 
3 *303:6 *303:27 7.765 
4 *303:27 *1152:A2 1.96 
5 *303:27 *1153:B2 4.48 
*END

*D_NET *304 0.00336102
*CONN
*I *1217:A1 I *D sky130_fd_sc_hd__mux2_1
*I *1205:A0 I *D sky130_fd_sc_hd__mux2_1
*I *1388:X O *D sky130_fd_sc_hd__dlygate4sd3_1
*CAP
1 *1217:A1 5.14984e-05
2 *1205:A0 0.000601658
3 *1388:X 0
4 *304:4 0.000653156
5 *1205:A0 *1102:B 1.14192e-05
6 *1205:A0 *1132:A1 4.42148e-05
7 *1205:A0 *1134:A1 4.04613e-05
8 *1205:A0 *1205:A1 2.01934e-05
9 *1205:A0 *1219:A0 8.54109e-05
10 *1205:A0 *1388:A 5.06989e-05
11 *1217:A1 *1102:B 0.000308018
12 *1205:S *1205:A0 8.52972e-05
13 *1217:S *1217:A1 0.000121036
14 *1219:S *1205:A0 7.28391e-05
15 *1220:A *1205:A0 1.98258e-05
16 *1322:CLK *1205:A0 9.13949e-06
17 *1322:D *1205:A0 4.86395e-05
18 *126:199 *1205:A0 0.000233597
19 *126:199 *1217:A1 0.000186439
20 *243:49 *1205:A0 0.000594881
21 *243:62 *1205:A0 8.61546e-05
22 *256:150 *1205:A0 3.64384e-05
*RES
1 *1388:X *304:4 1.6 
2 *304:4 *1205:A0 20.345 
3 *304:4 *1217:A1 4.465 
*END

*D_NET *305 0.00347789
*CONN
*I *1213:A1 I *D sky130_fd_sc_hd__mux2_1
*I *1134:A0 I *D sky130_fd_sc_hd__mux2_1
*I *1389:X O *D sky130_fd_sc_hd__dlygate4sd3_1
*CAP
1 *1213:A1 0
2 *1134:A0 0.00103448
3 *1389:X 0.000199931
4 *305:12 0.00123441
5 *1134:A0 *1215:A0 0.000240244
6 *305:12 *1214:A 4.61171e-06
7 *305:12 *372:10 2.23253e-05
8 *1215:A1 *1134:A0 0.000287258
9 *1288:CLK *1134:A0 9.51965e-05
10 *1288:RESET_B *1134:A0 3.1548e-05
11 *1289:D *1134:A0 1.49348e-05
12 *1318:CLK *1134:A0 0.000196084
13 *1319:D *305:12 6.22332e-05
14 *1385:A *1134:A0 2.21948e-05
15 *126:216 *1134:A0 3.24288e-05
*RES
1 *1389:X *305:12 8.96 
2 *305:12 *1134:A0 22.325 
3 *305:12 *1213:A1 1.6 
*END

*D_NET *306 0.000428054
*CONN
*I *1214:A I *D sky130_fd_sc_hd__clkbuf_1
*I *1390:X O *D sky130_fd_sc_hd__dlygate4sd3_1
*CAP
1 *1214:A 0.00017656
2 *1390:X 0.00017656
3 *1319:D *1214:A 7.03219e-05
4 *305:12 *1214:A 4.61171e-06
*RES
1 *1390:X *1214:A 9.72 
*END

*D_NET *307 0.00247852
*CONN
*I *1225:A1 I *D sky130_fd_sc_hd__mux2_1
*I *1196:A0 I *D sky130_fd_sc_hd__mux2_1
*I *1391:X O *D sky130_fd_sc_hd__dlygate4sd3_1
*CAP
1 *1225:A1 0.000881875
2 *1196:A0 0.000320888
3 *1391:X 0
4 *307:4 0.00120276
5 *1196:A0 *325:76 4.99619e-05
6 *1225:A1 *1106:B 0
7 *1225:A1 *1225:A0 0
8 *1225:A1 *364:23 0
9 *1196:S *1196:A0 2.30292e-05
10 *1226:A *1225:A1 0
11 *256:246 *1225:A1 0
*RES
1 *1391:X *307:4 1.6 
2 *307:4 *1196:A0 6.205 
3 *307:4 *1225:A1 16.775 
*END

*D_NET *308 0.00347527
*CONN
*I *1211:A1 I *D sky130_fd_sc_hd__mux2_1
*I *1132:A0 I *D sky130_fd_sc_hd__mux2_1
*I *1392:X O *D sky130_fd_sc_hd__dlygate4sd3_1
*CAP
1 *1211:A1 0.000320502
2 *1132:A0 0.000932156
3 *1392:X 0
4 *308:4 0.00125266
5 *1132:A0 *1132:A1 2.86975e-05
6 *1132:A0 *1392:A 0.000402934
7 *1211:A1 *1211:A0 4.99619e-05
8 *1132:S *1132:A0 1.52352e-05
9 *1135:A *1132:A0 0.000160211
10 *1212:A *1211:A1 6.46994e-05
11 *1222:A *1132:A0 0.00012657
12 *1289:D *1132:A0 0.000121644
*RES
1 *1392:X *308:4 1.6 
2 *308:4 *1132:A0 17.23 
3 *308:4 *1211:A1 6.535 
*END

*D_NET *309 0.000847949
*CONN
*I *1249:A0 I *D sky130_fd_sc_hd__mux2_1
*I *1393:X O *D sky130_fd_sc_hd__dlygate4sd3_1
*CAP
1 *1249:A0 0.000191984
2 *1393:X 0.000191984
3 *1249:A1 *1249:A0 4.89295e-05
4 *1249:S *1249:A0 4.77719e-05
5 *1252:A0 *1249:A0 0.00011577
6 *1252:A1 *1249:A0 4.66108e-05
7 *1252:S *1249:A0 0.000129829
8 *1253:A *1249:A0 5.30673e-05
9 *245:34 *1249:A0 2.20014e-05
*RES
1 *1393:X *1249:A0 8.135 
*END

*D_NET *310 0.000765694
*CONN
*I *1157:A0 I *D sky130_fd_sc_hd__mux2_1
*I *1395:X O *D sky130_fd_sc_hd__dlygate4sd3_1
*CAP
1 *1157:A0 0.000258308
2 *1395:X 0.000258308
3 *1157:A1 *1157:A0 2.88357e-05
4 *1157:S *1157:A0 6.72833e-06
5 *1295:CLK *1157:A0 0.000155489
6 *256:86 *1157:A0 3.78419e-05
7 *303:27 *1157:A0 2.01829e-05
*RES
1 *1395:X *1157:A0 11.955 
*END

*D_NET *311 0.000245074
*CONN
*I *1189:A0 I *D sky130_fd_sc_hd__mux2_1
*I *1396:X O *D sky130_fd_sc_hd__dlygate4sd3_1
*CAP
1 *1189:A0 0.000122537
2 *1396:X 0.000122537
*RES
1 *1396:X *1189:A0 5.03 
*END

*D_NET *312 0.000406685
*CONN
*I *1202:A0 I *D sky130_fd_sc_hd__mux2_1
*I *1397:X O *D sky130_fd_sc_hd__dlygate4sd3_1
*CAP
1 *1202:A0 3.89115e-05
2 *1397:X 3.89115e-05
3 *1130:B1 *1202:A0 6.52349e-05
4 *1202:S *1202:A0 4.82863e-05
5 *1204:A2 *1202:A0 1.47256e-05
6 *255:23 *1202:A0 0.000200615
*RES
1 *1397:X *1202:A0 5.03 
*END

*D_NET *313 0.000952392
*CONN
*I *1191:A0 I *D sky130_fd_sc_hd__mux2_1
*I *1398:X O *D sky130_fd_sc_hd__dlygate4sd3_1
*CAP
1 *1191:A0 0.000266887
2 *1398:X 0.000266887
3 *1192:A *1191:A0 0
4 *93:164 *1191:A0 4.31189e-05
5 *251:8 *1191:A0 4.82919e-05
6 *251:15 *1191:A0 0.000164874
7 *256:821 *1191:A0 0.000162332
*RES
1 *1398:X *1191:A0 11.94 
*END

*D_NET *314 0.00486311
*CONN
*I *1154:A2 I *D sky130_fd_sc_hd__o221a_2
*I *1159:A2 I *D sky130_fd_sc_hd__a21o_1
*I *1153:A2 I *D sky130_fd_sc_hd__a22o_1
*I *1422:X O *D sky130_fd_sc_hd__buf_1
*CAP
1 *1154:A2 2.5984e-05
2 *1159:A2 0.000311658
3 *1153:A2 1.93624e-05
4 *1422:X 0.000790156
5 *314:18 0.000696041
6 *314:10 0.00118116
7 *1159:A2 *1149:A 0.000218738
8 *1159:A2 *1403:A 0
9 *314:10 *1395:A 0.000115945
10 *1153:A1 *1153:A2 3.5678e-06
11 *1153:A1 *314:18 1.91597e-05
12 *1153:B1 *314:18 0.000235573
13 *1154:A1 *314:18 7.27704e-06
14 *1154:B1 *314:18 0.000131525
15 *1154:B2 *1154:A2 2.69217e-05
16 *1155:S *314:18 9.26032e-05
17 *1159:A1 *1159:A2 0.000155373
18 *1159:B1 *1159:A2 3.03541e-05
19 *1175:A *314:10 0.00011577
20 *1309:CLK *1159:A2 0.000103446
21 *93:95 *314:18 1.89895e-05
22 *93:114 *1154:A2 5.85307e-05
23 *93:120 *314:10 0
24 *158:12 *314:10 4.4022e-05
25 *158:12 *314:18 4.72227e-05
26 *162:12 *314:18 2.25299e-05
27 *240:51 *1159:A2 6.60042e-05
28 *240:51 *314:18 9.47972e-06
29 *256:86 *314:10 0.000153727
30 *256:607 *1159:A2 0.000161985
*RES
1 *1422:X *314:10 16.83 
2 *314:10 *314:18 8.39 
3 *314:18 *1153:A2 1.96 
4 *314:18 *1159:A2 13.115 
5 *314:10 *1154:A2 4.41 
*END

*D_NET *315 0.00030434
*CONN
*I *1174:A0 I *D sky130_fd_sc_hd__mux2_1
*I *1399:X O *D sky130_fd_sc_hd__dlygate4sd3_1
*CAP
1 *1174:A0 0.000112968
2 *1399:X 0.000112968
3 *1174:A0 *1167:A 1.9872e-05
4 *1174:A0 *1399:A 1.9872e-05
5 *93:120 *1174:A0 3.86607e-05
*RES
1 *1399:X *1174:A0 8.865 
*END

*D_NET *316 0.00134441
*CONN
*I *1200:A0 I *D sky130_fd_sc_hd__mux2_1
*I *1400:X O *D sky130_fd_sc_hd__dlygate4sd3_1
*CAP
1 *1200:A0 0.000480056
2 *1400:X 0.000480056
3 *1136:S *1200:A0 9.29586e-05
4 *1312:RESET_B *1200:A0 0.000197862
5 *145:39 *1200:A0 3.50562e-05
6 *145:67 *1200:A0 5.84216e-05
*RES
1 *1400:X *1200:A0 15.525 
*END

*D_NET *317 0.000816133
*CONN
*I *1172:A0 I *D sky130_fd_sc_hd__mux2_1
*I *1401:X O *D sky130_fd_sc_hd__dlygate4sd3_1
*CAP
1 *1172:A0 0.000341923
2 *1401:X 0.000341923
3 *1172:A0 *319:12 1.83756e-05
4 *1169:C1 *1172:A0 6.04361e-05
5 *1172:S *1172:A0 5.34747e-05
*RES
1 *1401:X *1172:A0 12.285 
*END

*D_NET *318 0.000399876
*CONN
*I *1146:A0 I *D sky130_fd_sc_hd__mux2_1
*I *1402:X O *D sky130_fd_sc_hd__dlygate4sd3_1
*CAP
1 *1146:A0 7.59799e-05
2 *1402:X 7.59799e-05
3 *1146:A0 *1139:A 0.000198987
4 *1146:A1 *1146:A0 4.89295e-05
*RES
1 *1402:X *1146:A0 5.03 
*END

*D_NET *319 0.00165011
*CONN
*I *1172:A1 I *D sky130_fd_sc_hd__mux2_1
*I *1169:B1 I *D sky130_fd_sc_hd__o211a_1
*I *1423:X O *D sky130_fd_sc_hd__clkbuf_1
*CAP
1 *1172:A1 0
2 *1169:B1 0.000330885
3 *1423:X 0.00032771
4 *319:12 0.000658595
5 *1169:B1 *1169:A2 9.12671e-06
6 *1169:B1 *320:6 0.000134723
7 *1169:C1 *1169:B1 0
8 *1172:A0 *319:12 1.83756e-05
9 *1173:A *319:12 7.35887e-05
10 *1300:D *319:12 9.71067e-05
*RES
1 *1423:X *319:12 11.54 
2 *319:12 *1169:B1 11.06 
3 *319:12 *1172:A1 1.6 
*END

*D_NET *320 0.0032288
*CONN
*I *1174:A1 I *D sky130_fd_sc_hd__mux2_1
*I *1170:B2 I *D sky130_fd_sc_hd__a22o_1
*I *1169:A2 I *D sky130_fd_sc_hd__o211a_1
*I *1424:X O *D sky130_fd_sc_hd__buf_1
*CAP
1 *1174:A1 0.000417199
2 *1170:B2 2.7262e-05
3 *1169:A2 2.36624e-05
4 *1424:X 0.000381965
5 *320:15 0.000558968
6 *320:6 0.000520135
7 *1174:A1 *1166:A 5.83121e-06
8 *1169:A1 *320:15 4.71087e-05
9 *1169:B1 *1169:A2 9.12671e-06
10 *1169:B1 *320:6 0.000134723
11 *1170:A1 *1174:A1 1.52352e-05
12 *1170:A2 *1174:A1 0.000101193
13 *1170:B1 *1169:A2 3.5678e-06
14 *1170:B1 *1174:A1 2.51954e-05
15 *1170:B1 *320:15 5.71932e-05
16 *1171:A2 *1174:A1 0.000165867
17 *1171:B1 *1174:A1 0.000500312
18 *1171:B1 *320:15 0.000122821
19 *1174:S *1174:A1 4.89295e-05
20 *1355:A *1174:A1 0
21 *249:16 *1174:A1 6.24991e-05
*RES
1 *1424:X *320:6 7.57 
2 *320:6 *1169:A2 2.215 
3 *320:6 *320:15 2.52 
4 *320:15 *1170:B2 2.215 
5 *320:15 *1174:A1 15.095 
*END

*D_NET *321 0.00215857
*CONN
*I *1371:A I *D sky130_fd_sc_hd__dlygate4sd3_1
*I *1297:Q O *D sky130_fd_sc_hd__dfrtp_1
*CAP
1 *1371:A 0.000941703
2 *1297:Q 0.000941703
3 *1298:CLK *1371:A 4.94474e-05
4 *1298:D *1371:A 1.52418e-05
5 *1298:RESET_B *1371:A 1.34636e-05
6 *256:737 *1371:A 2.42591e-05
7 *256:755 *1371:A 0.000172747
*RES
1 *1297:Q *1371:A 14.96 
*END

*D_NET *322 0.000514077
*CONN
*I *1363:A I *D sky130_fd_sc_hd__dlygate4sd3_1
*I *1298:Q O *D sky130_fd_sc_hd__dfrtp_1
*CAP
1 *1363:A 0.000232971
2 *1298:Q 0.000232971
3 *1330:RESET_B *1363:A 0
4 *1331:D *1363:A 4.81356e-05
5 *256:755 *1363:A 0
*RES
1 *1298:Q *1363:A 10.62 
*END

*D_NET *323 0.00202987
*CONN
*I *1406:A I *D sky130_fd_sc_hd__dlygate4sd3_1
*I *1299:Q O *D sky130_fd_sc_hd__dfrtp_1
*CAP
1 *1406:A 0.000705715
2 *1299:Q 0.000705715
3 *1407:A *1406:A 8.64599e-05
4 *275:14 *1406:A 0.000531985
*RES
1 *1299:Q *1406:A 19.065 
*END

*D_NET *324 0.0151721
*CONN
*I *1177:A1 I *D sky130_fd_sc_hd__mux2_1
*I *1132:A1 I *D sky130_fd_sc_hd__mux2_1
*I *1205:A1 I *D sky130_fd_sc_hd__mux2_1
*I *1194:A1 I *D sky130_fd_sc_hd__mux2_1
*I *1382:A I *D sky130_fd_sc_hd__dlygate4sd3_1
*I *1283:A2 I *D sky130_fd_sc_hd__a21oi_1
*I *1077:C I *D sky130_fd_sc_hd__and3_1
*I *1160:A1 I *D sky130_fd_sc_hd__mux2_1
*I *1349:Q O *D sky130_fd_sc_hd__dfrtp_4
*CAP
1 *1177:A1 0
2 *1132:A1 0.000527523
3 *1205:A1 2.79892e-05
4 *1194:A1 9.49742e-05
5 *1382:A 0.000175101
6 *1283:A2 0.00033963
7 *1077:C 2.53672e-05
8 *1160:A1 0.000223449
9 *1349:Q 0.000282252
10 *324:95 0.00111664
11 *324:74 0.000870752
12 *324:68 0.000551553
13 *324:55 0.0006659
14 *324:31 0.00065038
15 *324:25 0.000757342
16 *324:10 0.000823761
17 *1077:C *1077:B 2.4453e-05
18 *1132:A1 *1136:A1 0
19 *1132:A1 *1362:A 0
20 *1132:A1 *326:48 0
21 *1382:A *1181:A1 0.000112349
22 *1382:A *326:72 4.66108e-05
23 *324:25 *1164:A1 0.00020048
24 *324:25 *325:29 0.000156911
25 *324:25 *326:76 4.22675e-05
26 *324:31 *1077:B 0.000179796
27 *324:55 *325:46 0
28 *324:55 *326:76 0.000310368
29 *324:68 *325:46 0
30 *324:68 *325:61 0
31 *324:68 *326:76 2.92496e-05
32 *324:74 *325:61 2.57991e-05
33 *324:74 *325:76 2.39947e-05
34 *324:74 *326:35 0.000190398
35 *324:95 *325:76 0.000260912
36 *324:95 *326:35 6.36286e-05
37 *324:95 *326:48 0.000484227
38 *1077:A *1283:A2 2.246e-05
39 *1132:A0 *1132:A1 2.86975e-05
40 *1132:S *1132:A1 0.000124471
41 *1133:A *1132:A1 3.00381e-05
42 *1160:A0 *1160:A1 4.89295e-05
43 *1160:S *1160:A1 8.69583e-05
44 *1160:S *324:10 0
45 *1161:A *1160:A1 7.69521e-05
46 *1177:A0 *324:74 2.69153e-05
47 *1178:A *324:74 4.88504e-05
48 *1181:A0 *1382:A 0.000165535
49 *1182:A *324:68 0.000258367
50 *1194:A0 *1194:A1 0.000381889
51 *1194:S *1194:A1 0.000156612
52 *1194:S *324:74 5.05981e-05
53 *1194:S *324:95 0.000505168
54 *1205:A0 *1132:A1 4.42148e-05
55 *1205:A0 *1205:A1 2.01934e-05
56 *1205:S *1132:A1 0.000132745
57 *1205:S *1205:A1 4.77769e-05
58 *1219:S *1132:A1 1.26044e-05
59 *1282:B *1382:A 0.000120874
60 *1282:B *324:10 0
61 *1283:B1 *1283:A2 8.73389e-06
62 *1284:A *1283:A2 0.000282033
63 *1284:B *1283:A2 3.88516e-05
64 *1285:A *1077:C 7.04589e-05
65 *1285:A *324:31 0.000639809
66 *1297:D *324:10 7.4027e-05
67 *1297:RESET_B *324:10 1.15688e-05
68 *1299:CLK *324:31 8.83056e-05
69 *1305:D *324:68 0.000289698
70 *1324:CLK *324:74 0.000170621
71 *1329:RESET_B *1382:A 8.65961e-05
72 *94:25 *1283:A2 8.46596e-05
73 *162:44 *324:74 0.000153675
74 *173:34 *324:95 0.000113909
75 *240:92 *1283:A2 0.000221214
76 *240:94 *1283:A2 0.00022122
77 *241:18 *324:10 0
78 *241:68 *324:74 0.000135382
79 *256:150 *1132:A1 0.000121072
80 *256:150 *1205:A1 0.00011543
81 *256:168 *324:95 0.00029755
82 *256:525 *1132:A1 0.000175966
83 *256:537 *1132:A1 5.30144e-05
84 *256:722 *1160:A1 1.83756e-05
85 *256:722 *324:10 2.4997e-05
*RES
1 *1349:Q *324:10 8.745 
2 *324:10 *1160:A1 7.44 
3 *324:10 *324:25 6.225 
4 *324:25 *324:31 10.055 
5 *324:31 *1077:C 2.275 
6 *324:31 *1283:A2 13.505 
7 *324:25 *324:55 3.675 
8 *324:55 *1382:A 8.535 
9 *324:55 *324:68 10.01 
10 *324:68 *324:74 9.215 
11 *324:74 *1194:A1 7.155 
12 *324:74 *324:95 18.77 
13 *324:95 *1205:A1 2.755 
14 *324:95 *1132:A1 17.48 
15 *324:68 *1177:A1 1.6 
*END

*D_NET *325 0.0147909
*CONN
*I *1196:A1 I *D sky130_fd_sc_hd__mux2_1
*I *1134:A1 I *D sky130_fd_sc_hd__mux2_1
*I *1207:A1 I *D sky130_fd_sc_hd__mux2_1
*I *1376:A I *D sky130_fd_sc_hd__dlygate4sd3_1
*I *1179:A1 I *D sky130_fd_sc_hd__mux2_1
*I *1077:B I *D sky130_fd_sc_hd__and3_1
*I *1162:A1 I *D sky130_fd_sc_hd__mux2_1
*I *1350:Q O *D sky130_fd_sc_hd__dfrtp_4
*CAP
1 *1196:A1 0
2 *1134:A1 0.00106526
3 *1207:A1 0.000709459
4 *1376:A 0
5 *1179:A1 3.76591e-05
6 *1077:B 0.000556015
7 *1162:A1 0.000445727
8 *1350:Q 0
9 *325:88 0.00217012
10 *325:76 0.00066262
11 *325:61 0.000569426
12 *325:46 0.000718513
13 *325:29 0.00109441
14 *325:4 0.000605483
15 *1134:A1 *1384:A 0.000231795
16 *1134:A1 *1388:A 0.000382486
17 *1162:A1 *1164:A1 0.000314981
18 *325:46 *1375:A 8.53113e-06
19 *325:61 *1375:A 9.14049e-05
20 *325:88 *1374:A 7.1624e-05
21 *1077:C *1077:B 2.4453e-05
22 *1135:A *1134:A1 0.000311071
23 *1136:A0 *1134:A1 6.04372e-05
24 *1164:A0 *1162:A1 4.21518e-05
25 *1178:A *325:61 2.95004e-05
26 *1179:A0 *1179:A1 0.000122331
27 *1179:S *1179:A1 2.75145e-05
28 *1196:A0 *325:76 4.99619e-05
29 *1196:S *325:76 0.000237243
30 *1197:A *325:76 2.49909e-05
31 *1205:A0 *1134:A1 4.04613e-05
32 *1207:A0 *1207:A1 0.000387141
33 *1219:S *325:88 0.000106434
34 *1227:A1 *325:88 9.10613e-05
35 *1282:B *325:46 0.000349432
36 *1285:A *1077:B 4.06448e-06
37 *1289:D *1134:A1 5.66717e-05
38 *1299:CLK *1077:B 8.35118e-05
39 *1299:CLK *325:29 0.000121659
40 *1303:D *325:61 0.000114524
41 *1303:RESET_B *325:61 4.82532e-05
42 *1303:RESET_B *325:76 3.11107e-05
43 *1305:D *325:46 7.8831e-05
44 *1309:RESET_B *325:76 1.93834e-05
45 *1315:CLK *1207:A1 8.52972e-05
46 *1322:D *1134:A1 3.54721e-05
47 *1324:CLK *325:61 0.000178952
48 *1328:CLK *1179:A1 1.34594e-05
49 *94:8 *1077:B 4.66108e-05
50 *126:180 *325:88 9.83856e-05
51 *154:34 *1162:A1 2.747e-05
52 *241:10 *325:46 9.76522e-05
53 *241:53 *325:46 0.0001032
54 *241:68 *325:46 5.47531e-05
55 *241:68 *325:61 0.0003764
56 *243:62 *1134:A1 6.85267e-05
57 *243:112 *1134:A1 0.000122797
58 *256:158 *325:88 0.000243624
59 *256:168 *325:76 0.000105266
60 *256:168 *325:88 0
61 *256:170 *325:76 0.000235955
62 *256:184 *325:76 5.19531e-05
63 *324:25 *325:29 0.000156911
64 *324:31 *1077:B 0.000179796
65 *324:55 *325:46 0
66 *324:68 *325:46 0
67 *324:68 *325:61 0
68 *324:74 *325:61 2.57991e-05
69 *324:74 *325:76 2.39947e-05
70 *324:95 *325:76 0.000260912
*RES
1 *1350:Q *325:4 1.6 
2 *325:4 *1162:A1 11.69 
3 *325:4 *325:29 7.03 
4 *325:29 *1077:B 9.43 
5 *325:29 *325:46 11.285 
6 *325:46 *1179:A1 4.74 
7 *325:46 *325:61 8.31 
8 *325:61 *1376:A 3.6 
9 *325:61 *325:76 10.505 
10 *325:76 *325:88 12.76 
11 *325:88 *1207:A1 10.675 
12 *325:88 *1134:A1 25.13 
13 *325:76 *1196:A1 1.6 
*END

*D_NET *326 0.0100258
*CONN
*I *1181:A1 I *D sky130_fd_sc_hd__mux2_1
*I *1369:A I *D sky130_fd_sc_hd__dlygate4sd3_1
*I *1164:A1 I *D sky130_fd_sc_hd__mux2_1
*I *1136:A1 I *D sky130_fd_sc_hd__mux2_1
*I *1209:A1 I *D sky130_fd_sc_hd__mux2_1
*I *1198:A1 I *D sky130_fd_sc_hd__mux2_1
*I *1078:A I *D sky130_fd_sc_hd__and2_1
*I *1351:Q O *D sky130_fd_sc_hd__dfrtp_4
*CAP
1 *1181:A1 2.96031e-05
2 *1369:A 0
3 *1164:A1 0.000150963
4 *1136:A1 0.000384862
5 *1209:A1 0.000111336
6 *1198:A1 0
7 *1078:A 0.000287827
8 *1351:Q 0
9 *326:76 0.00031659
10 *326:72 0.000410312
11 *326:48 0.000979065
12 *326:35 0.00124567
13 *326:27 0.00116361
14 *326:4 0.000473558
15 *326:48 *1362:A 0.000116165
16 *1078:B *1078:A 5.12969e-06
17 *1132:A1 *1136:A1 0
18 *1132:A1 *326:48 0
19 *1136:A0 *1136:A1 3.64998e-06
20 *1162:A1 *1164:A1 0.000314981
21 *1164:A0 *1164:A1 4.89295e-05
22 *1164:S *1164:A1 1.43253e-05
23 *1165:A *1164:A1 7.50642e-05
24 *1165:A *326:76 5.31158e-06
25 *1181:A0 *1181:A1 4.82863e-05
26 *1182:A *1181:A1 4.82919e-05
27 *1182:A *326:72 8.40213e-05
28 *1194:S *326:35 0.000552345
29 *1197:A *326:35 7.23533e-05
30 *1205:S *1209:A1 4.65515e-05
31 *1205:S *326:48 2.29941e-05
32 *1206:A *326:48 0.00013025
33 *1209:A0 *1136:A1 0
34 *1209:A0 *326:48 0
35 *1209:S *1209:A1 9.53428e-06
36 *1282:B *326:72 5.74656e-05
37 *1283:B1 *1078:A 0
38 *1283:B1 *326:35 0.000383368
39 *1287:D *1078:A 0.000126561
40 *1310:CLK *326:35 6.03579e-05
41 *1382:A *1181:A1 0.000112349
42 *1382:A *326:72 4.66108e-05
43 *94:25 *1078:A 2.01737e-05
44 *126:10 *326:76 7.97165e-05
45 *154:34 *1164:A1 0.000137452
46 *173:34 *326:35 0.000106538
47 *184:49 *1209:A1 2.11084e-05
48 *241:10 *326:35 3.47837e-05
49 *241:53 *326:35 7.45712e-05
50 *241:68 *326:35 0.000155462
51 *243:19 *326:35 5.93303e-05
52 *243:19 *326:48 0
53 *243:43 *326:48 0
54 *243:86 *1136:A1 0
55 *243:86 *326:48 0
56 *243:97 *1136:A1 0
57 *256:537 *1136:A1 0
58 *256:621 *1078:A 7.7713e-05
59 *324:25 *1164:A1 0.00020048
60 *324:25 *326:76 4.22675e-05
61 *324:55 *326:76 0.000310368
62 *324:68 *326:76 2.92496e-05
63 *324:74 *326:35 0.000190398
64 *324:95 *326:35 6.36286e-05
65 *324:95 *326:48 0.000484227
*RES
1 *1351:Q *326:4 1.6 
2 *326:4 *1078:A 11.36 
3 *326:4 *326:27 2.52 
4 *326:27 *326:35 23.405 
5 *326:35 *1198:A1 3.6 
6 *326:35 *326:48 10.86 
7 *326:48 *1209:A1 5.445 
8 *326:48 *1136:A1 9.765 
9 *326:27 *326:72 3.555 
10 *326:72 *326:76 6.44 
11 *326:76 *1164:A1 9.225 
12 *326:76 *1369:A 3.6 
13 *326:72 *1181:A1 2.74 
*END

*D_NET *327 0.00127258
*CONN
*I *1140:A I *D sky130_fd_sc_hd__inv_2
*I *1144:A0 I *D sky130_fd_sc_hd__mux2_1
*I *1291:Q O *D sky130_fd_sc_hd__dfrtp_1
*CAP
1 *1140:A 0.000155254
2 *1144:A0 5.77506e-05
3 *1291:Q 0.000134392
4 *327:12 0.000347397
5 *1144:A1 *1140:A 8.7181e-05
6 *1147:A *1140:A 4.77769e-05
7 *1292:CLK *1140:A 0.000106873
8 *1292:CLK *327:12 5.20968e-05
9 *93:10 *1144:A0 0.000124895
10 *93:10 *327:12 0.000158965
11 *256:23 *1140:A 0
*RES
1 *1291:Q *327:12 8.21 
2 *327:12 *1144:A0 2.74 
3 *327:12 *1140:A 9.155 
*END

*D_NET *328 0.0015588
*CONN
*I *1402:A I *D sky130_fd_sc_hd__dlygate4sd3_1
*I *1139:A I *D sky130_fd_sc_hd__inv_2
*I *1292:Q O *D sky130_fd_sc_hd__dfrtp_1
*CAP
1 *1402:A 8.38235e-05
2 *1139:A 9.12401e-05
3 *1292:Q 5.9615e-05
4 *328:10 0.000234679
5 *1077:A *328:10 0.000114518
6 *1146:A0 *1139:A 0.000198987
7 *1146:A1 *1139:A 0.000220953
8 *154:27 *1139:A 0.000198614
9 *154:34 *1139:A 0.000160319
10 *154:34 *1402:A 0.000196048
*RES
1 *1292:Q *328:10 6.98 
2 *328:10 *1139:A 6.19 
3 *328:10 *1402:A 3.43 
*END

*D_NET *329 0.0008511
*CONN
*I *1372:A I *D sky130_fd_sc_hd__dlygate4sd3_1
*I *1138:A I *D sky130_fd_sc_hd__inv_2
*I *1293:Q O *D sky130_fd_sc_hd__dfrtp_1
*CAP
1 *1372:A 0.000167543
2 *1138:A 0
3 *1293:Q 9.62515e-05
4 *329:10 0.000263794
5 *1155:S *1372:A 4.43871e-06
6 *1294:RESET_B *1372:A 0
7 *240:34 *1372:A 0.000160338
8 *240:34 *329:10 6.63221e-05
9 *240:38 *1372:A 9.24127e-05
*RES
1 *1293:Q *329:10 3.46 
2 *329:10 *1138:A 1.6 
3 *329:10 *1372:A 9.23 
*END

*D_NET *330 0.000651061
*CONN
*I *1365:A I *D sky130_fd_sc_hd__dlygate4sd3_1
*I *1303:Q O *D sky130_fd_sc_hd__dfrtp_1
*CAP
1 *1365:A 0.000320968
2 *1303:Q 0.000320968
3 *1327:RESET_B *1365:A 9.12494e-06
*RES
1 *1303:Q *1365:A 11.1 
*END

*D_NET *331 0.000531982
*CONN
*I *1375:A I *D sky130_fd_sc_hd__dlygate4sd3_1
*I *1304:Q O *D sky130_fd_sc_hd__dfrtp_1
*CAP
1 *1375:A 0.000153079
2 *1304:Q 0.000153079
3 *1179:A0 *1375:A 4.82919e-05
4 *1179:S *1375:A 3.00381e-05
5 *1305:D *1375:A 4.75576e-05
6 *325:46 *1375:A 8.53113e-06
7 *325:61 *1375:A 9.14049e-05
*RES
1 *1304:Q *1375:A 9.93 
*END

*D_NET *332 0.000559843
*CONN
*I *1379:A I *D sky130_fd_sc_hd__dlygate4sd3_1
*I *1305:Q O *D sky130_fd_sc_hd__dfrtp_1
*CAP
1 *1379:A 0.000218176
2 *1305:Q 0.000218176
3 *1234:A *1379:A 0.000123492
*RES
1 *1305:Q *1379:A 6.755 
*END

*D_NET *333 0.00154194
*CONN
*I *1151:A I *D sky130_fd_sc_hd__inv_2
*I *1155:A0 I *D sky130_fd_sc_hd__mux2_1
*I *1294:Q O *D sky130_fd_sc_hd__dfrtp_1
*CAP
1 *1151:A 0.000178365
2 *1155:A0 2.56286e-05
3 *1294:Q 0.000220335
4 *333:8 0.000424328
5 *1155:A1 *1151:A 0.000362972
6 *1155:A1 *1155:A0 7.23533e-05
7 *1156:A *1151:A 0
8 *1295:CLK *1151:A 2.34238e-05
9 *93:95 *1151:A 0.000100301
10 *93:95 *1155:A0 4.05358e-05
11 *256:54 *333:8 9.36949e-05
*RES
1 *1294:Q *333:8 6.12 
2 *333:8 *1155:A0 4.47 
3 *333:8 *1151:A 8.295 
*END

*D_NET *334 0.000626911
*CONN
*I *1395:A I *D sky130_fd_sc_hd__dlygate4sd3_1
*I *1150:A I *D sky130_fd_sc_hd__inv_2
*I *1295:Q O *D sky130_fd_sc_hd__dfrtp_1
*CAP
1 *1395:A 8.10222e-05
2 *1150:A 4.28347e-05
3 *1295:Q 8.4577e-05
4 *334:6 0.000208434
5 *1295:RESET_B *334:6 5.83121e-06
6 *256:76 *1150:A 4.77807e-05
7 *256:76 *334:6 4.04857e-05
8 *314:10 *1395:A 0.000115945
*RES
1 *1295:Q *334:6 3.085 
2 *334:6 *1150:A 2.665 
3 *334:6 *1395:A 7.34 
*END

*D_NET *335 0.00175845
*CONN
*I *1149:A I *D sky130_fd_sc_hd__inv_2
*I *1403:A I *D sky130_fd_sc_hd__dlygate4sd3_1
*I *1296:Q O *D sky130_fd_sc_hd__dfrtp_1
*CAP
1 *1149:A 0.000238366
2 *1403:A 0.000131076
3 *1296:Q 6.53786e-05
4 *335:6 0.000434821
5 *1159:A1 *1403:A 2.30258e-05
6 *1159:A2 *1149:A 0.000218738
7 *1159:A2 *1403:A 0
8 *1309:CLK *1149:A 0.000113222
9 *93:120 *1403:A 1.21329e-05
10 *162:44 *1149:A 0.000129765
11 *162:44 *335:6 4.6075e-05
12 *240:51 *1149:A 0.000121019
13 *256:60 *1403:A 7.06347e-05
14 *256:76 *1403:A 0.000131168
15 *256:607 *1149:A 2.30292e-05
*RES
1 *1296:Q *335:6 2.395 
2 *335:6 *1403:A 8.255 
3 *335:6 *1149:A 10.55 
*END

*D_NET *336 7.61149e-05
*CONN
*I *1377:A I *D sky130_fd_sc_hd__dlygate4sd3_1
*I *1309:Q O *D sky130_fd_sc_hd__dfrtp_1
*CAP
1 *1377:A 2.43002e-05
2 *1309:Q 2.43002e-05
3 *1309:RESET_B *1377:A 2.75145e-05
*RES
1 *1309:Q *1377:A 3.65 
*END

*D_NET *337 0.000357795
*CONN
*I *1391:A I *D sky130_fd_sc_hd__dlygate4sd3_1
*I *1310:Q O *D sky130_fd_sc_hd__dfrtp_1
*CAP
1 *1391:A 9.60919e-05
2 *1310:Q 9.60919e-05
3 *1325:CLK *1391:A 0
4 *126:180 *1391:A 0.000116165
5 *256:234 *1391:A 4.94457e-05
*RES
1 *1310:Q *1391:A 9.03 
*END

*D_NET *338 0.0002999
*CONN
*I *1374:A I *D sky130_fd_sc_hd__dlygate4sd3_1
*I *1311:Q O *D sky130_fd_sc_hd__dfrtp_1
*CAP
1 *1374:A 9.46699e-05
2 *1311:Q 9.46699e-05
3 *126:180 *1374:A 3.89366e-05
4 *325:88 *1374:A 7.1624e-05
*RES
1 *1311:Q *1374:A 9.135 
*END

*D_NET *339 0.00221574
*CONN
*I *1401:A I *D sky130_fd_sc_hd__dlygate4sd3_1
*I *1168:A I *D sky130_fd_sc_hd__inv_2
*I *1300:Q O *D sky130_fd_sc_hd__dfrtp_1
*CAP
1 *1401:A 0.000252747
2 *1168:A 0.000446727
3 *1300:Q 4.46359e-05
4 *339:8 0.000744109
5 *1168:A *1167:A 0
6 *1169:C1 *1168:A 1.61831e-05
7 *1173:A *1168:A 0
8 *1175:A *1168:A 0
9 *1300:RESET_B *339:8 2.65814e-06
10 *1301:CLK *1168:A 0.000116157
11 *1301:RESET_B *1168:A 1.0063e-05
12 *169:12 *1168:A 4.43871e-06
13 *169:12 *1401:A 0.000157969
14 *242:8 *1168:A 3.05373e-05
15 *242:8 *1401:A 9.73898e-05
16 *242:36 *1401:A 6.4402e-05
17 *256:86 *1168:A 0.000120888
18 *256:100 *1168:A 9.54399e-05
19 *256:112 *1168:A 0
20 *256:112 *339:8 1.1392e-05
*RES
1 *1300:Q *339:8 4.05 
2 *339:8 *1168:A 11.31 
3 *339:8 *1401:A 9.06 
*END

*D_NET *340 0.00108808
*CONN
*I *1399:A I *D sky130_fd_sc_hd__dlygate4sd3_1
*I *1167:A I *D sky130_fd_sc_hd__inv_2
*I *1301:Q O *D sky130_fd_sc_hd__dfrtp_1
*CAP
1 *1399:A 0.000157692
2 *1167:A 0.000341007
3 *1301:Q 0
4 *340:4 0.000498699
5 *1168:A *1167:A 0
6 *1174:A0 *1167:A 1.9872e-05
7 *1174:A0 *1399:A 1.9872e-05
8 *1175:A *1167:A 3.86607e-05
9 *93:120 *1167:A 0
10 *256:112 *1167:A 1.22762e-05
*RES
1 *1301:Q *340:4 1.6 
2 *340:4 *1167:A 10.475 
3 *340:4 *1399:A 4.12 
*END

*D_NET *341 0.00135891
*CONN
*I *1361:A I *D sky130_fd_sc_hd__dlygate4sd3_1
*I *1166:A I *D sky130_fd_sc_hd__inv_2
*I *1302:Q O *D sky130_fd_sc_hd__dfrtp_1
*CAP
1 *1361:A 7.68943e-05
2 *1166:A 0.000177531
3 *1302:Q 0.000136462
4 *341:8 0.000390887
5 *1170:A2 *1166:A 4.66108e-05
6 *1171:A1 *1166:A 1.91597e-05
7 *1174:A1 *1166:A 5.83121e-06
8 *1176:A2 *1166:A 8.33066e-06
9 *1176:A2 *1361:A 0.000104264
10 *1302:RESET_B *341:8 3.06833e-05
11 *249:16 *1166:A 0.000244007
12 *256:126 *341:8 0.000118246
*RES
1 *1302:Q *341:8 5.43 
2 *341:8 *1166:A 7.305 
3 *341:8 *1361:A 4.98 
*END

*D_NET *342 0.00115181
*CONN
*I *1388:A I *D sky130_fd_sc_hd__dlygate4sd3_1
*I *1315:Q O *D sky130_fd_sc_hd__dfrtp_1
*CAP
1 *1388:A 0.000269621
2 *1315:Q 0.000269621
3 *1134:A1 *1388:A 0.000382486
4 *1205:A0 *1388:A 5.06989e-05
5 *1220:A *1388:A 0.000155253
6 *1322:D *1388:A 2.4131e-05
*RES
1 *1315:Q *1388:A 9.455 
*END

*D_NET *343 0.00107887
*CONN
*I *1362:A I *D sky130_fd_sc_hd__dlygate4sd3_1
*I *1316:Q O *D sky130_fd_sc_hd__dfrtp_1
*CAP
1 *1362:A 0.000307285
2 *1316:Q 0.000307285
3 *1132:A1 *1362:A 0
4 *1205:S *1362:A 5.02217e-05
5 *243:49 *1362:A 0.000237249
6 *256:150 *1362:A 6.06594e-05
7 *326:48 *1362:A 0.000116165
*RES
1 *1316:Q *1362:A 12.135 
*END

*D_NET *344 0.000436677
*CONN
*I *1386:A I *D sky130_fd_sc_hd__dlygate4sd3_1
*I *1317:Q O *D sky130_fd_sc_hd__dfrtp_1
*CAP
1 *1386:A 0.000128251
2 *1317:Q 0.000128251
3 *1209:A0 *1386:A 0.000180174
*RES
1 *1317:Q *1386:A 6.065 
*END

*D_NET *345 0.000834361
*CONN
*I *1185:A I *D sky130_fd_sc_hd__inv_2
*I *1396:A I *D sky130_fd_sc_hd__dlygate4sd3_1
*I *1306:Q O *D sky130_fd_sc_hd__dfrtp_1
*CAP
1 *1185:A 0.000131791
2 *1396:A 5.45983e-05
3 *1306:Q 8.65631e-05
4 *345:8 0.000272952
5 *1186:C1 *1185:A 2.75229e-05
6 *1187:B2 *1185:A 5.05521e-05
7 *1189:S *1185:A 0
8 *93:139 *1185:A 0
9 *93:147 *1185:A 0.000139245
10 *93:147 *1396:A 7.11365e-05
11 *242:60 *1185:A 0
12 *242:75 *1185:A 0
*RES
1 *1306:Q *345:8 4.98 
2 *345:8 *1396:A 4.74 
3 *345:8 *1185:A 6.54 
*END

*D_NET *346 0.00180882
*CONN
*I *1398:A I *D sky130_fd_sc_hd__dlygate4sd3_1
*I *1184:A I *D sky130_fd_sc_hd__inv_2
*I *1307:Q O *D sky130_fd_sc_hd__dfrtp_1
*CAP
1 *1398:A 0.000171501
2 *1184:A 0.000354104
3 *1307:Q 0
4 *346:4 0.000525605
5 *1192:A *1184:A 0
6 *1307:RESET_B *1184:A 4.2854e-05
7 *93:164 *1398:A 0.000276492
8 *180:12 *1184:A 8.5841e-05
9 *242:81 *1184:A 7.85595e-05
10 *251:8 *1184:A 0.000201503
11 *252:12 *1398:A 0
12 *256:811 *1184:A 7.23635e-05
*RES
1 *1307:Q *346:4 1.6 
2 *346:4 *1184:A 11.675 
3 *346:4 *1398:A 9.395 
*END

*D_NET *347 0.00119622
*CONN
*I *1383:A I *D sky130_fd_sc_hd__dlygate4sd3_1
*I *1183:A I *D sky130_fd_sc_hd__inv_2
*I *1308:Q O *D sky130_fd_sc_hd__dfrtp_1
*CAP
1 *1383:A 0.000151243
2 *1183:A 0.000320899
3 *1308:Q 6.25121e-05
4 *347:6 0.000534654
5 *1136:S *1383:A 9.12494e-06
6 *1308:RESET_B *1183:A 4.19286e-05
7 *1308:RESET_B *1383:A 2.92496e-05
8 *1308:RESET_B *347:6 4.66108e-05
*RES
1 *1308:Q *347:6 2.395 
2 *347:6 *1183:A 9.5 
3 *347:6 *1383:A 8.255 
*END

*D_NET *348 0.00139961
*CONN
*I *1392:A I *D sky130_fd_sc_hd__dlygate4sd3_1
*I *1288:Q O *D sky130_fd_sc_hd__dfrtp_1
*CAP
1 *1392:A 0.00042066
2 *1288:Q 0.00042066
3 *1132:A0 *1392:A 0.000402934
4 *1222:A *1392:A 0.00012657
5 *126:216 *1392:A 0
6 *246:45 *1392:A 2.87867e-05
*RES
1 *1288:Q *1392:A 16.035 
*END

*D_NET *349 0.000909179
*CONN
*I *1389:A I *D sky130_fd_sc_hd__dlygate4sd3_1
*I *1289:Q O *D sky130_fd_sc_hd__dfrtp_1
*CAP
1 *1389:A 0.000379908
2 *1289:Q 0.000379908
3 *1216:A *1389:A 7.30505e-05
4 *1289:RESET_B *1389:A 7.63128e-05
*RES
1 *1289:Q *1389:A 9.185 
*END

*D_NET *350 0.00104755
*CONN
*I *1384:A I *D sky130_fd_sc_hd__dlygate4sd3_1
*I *1290:Q O *D sky130_fd_sc_hd__dfrtp_1
*CAP
1 *1384:A 0.000289253
2 *1290:Q 0.000289253
3 *1134:A1 *1384:A 0.000231795
4 *1134:S *1384:A 4.77757e-05
5 *1136:A0 *1384:A 2.93517e-05
6 *145:67 *1384:A 0.000122817
7 *243:112 *1384:A 3.73067e-05
*RES
1 *1290:Q *1384:A 8.495 
*END

*D_NET *351 0.00175768
*CONN
*I *1400:A I *D sky130_fd_sc_hd__dlygate4sd3_1
*I *1128:A I *D sky130_fd_sc_hd__inv_2
*I *1312:Q O *D sky130_fd_sc_hd__dfrtp_1
*CAP
1 *1400:A 0.000153768
2 *1128:A 0.000519457
3 *1312:Q 0
4 *351:4 0.000673225
5 *1129:A2 *1128:A 9.183e-05
6 *1312:RESET_B *1128:A 6.18661e-05
7 *1312:RESET_B *1400:A 0.000234517
8 *145:39 *1128:A 2.30184e-05
*RES
1 *1312:Q *351:4 1.6 
2 *351:4 *1128:A 12.26 
3 *351:4 *1400:A 5.08 
*END

*D_NET *352 0.00139654
*CONN
*I *1127:A I *D sky130_fd_sc_hd__inv_2
*I *1397:A I *D sky130_fd_sc_hd__dlygate4sd3_1
*I *1313:Q O *D sky130_fd_sc_hd__dfrtp_1
*CAP
1 *1127:A 8.7372e-05
2 *1397:A 9.11976e-05
3 *1313:Q 0.00019721
4 *352:6 0.00037578
5 *1129:C1 *1127:A 5.19006e-06
6 *1130:B1 *1397:A 5.4155e-06
7 *1131:A1 *1127:A 8.35106e-05
8 *1131:A1 *1397:A 7.98749e-06
9 *1131:A1 *352:6 0.000121643
10 *1131:B1 *352:6 6.03947e-06
11 *1131:B2 *1127:A 3.63576e-05
12 *1131:B2 *1397:A 9.17697e-05
13 *1131:B2 *352:6 0.000232959
14 *1202:S *352:6 2.36092e-05
15 *253:12 *352:6 3.04958e-05
*RES
1 *1313:Q *352:6 5.5 
2 *352:6 *1397:A 7.34 
3 *352:6 *1127:A 3.355 
*END

*D_NET *353 0.00102514
*CONN
*I *1126:A I *D sky130_fd_sc_hd__inv_2
*I *1394:A I *D sky130_fd_sc_hd__dlygate4sd3_1
*I *1314:Q O *D sky130_fd_sc_hd__dfrtp_1
*CAP
1 *1126:A 0.000198104
2 *1394:A 1.37747e-05
3 *1314:Q 0.000201291
4 *353:8 0.00041317
5 *1129:A1 *353:8 0
6 *1203:A *1126:A 0
7 *1204:A2 *1394:A 2.75145e-05
8 *1313:D *1126:A 0
9 *1313:D *353:8 0
10 *1313:RESET_B *353:8 3.24721e-05
11 *140:14 *1126:A 8.8266e-05
12 *254:10 *1126:A 2.30292e-05
13 *254:12 *1126:A 0
14 *255:23 *1394:A 2.75145e-05
*RES
1 *1314:Q *353:8 7.02 
2 *353:8 *1394:A 4.05 
3 *353:8 *1126:A 6.99 
*END

*D_NET *354 0.000316022
*CONN
*I *1110:A I *D sky130_fd_sc_hd__buf_6
*I *1287:Q O *D sky130_fd_sc_hd__dfrtp_1
*CAP
1 *1110:A 0.00012046
2 *1287:Q 0.00012046
3 *256:627 *1110:A 7.5103e-05
*RES
1 *1287:Q *1110:A 5.39 
*END

*D_NET *355 0.0142212
*CONN
*I *1241:A1 I *D sky130_fd_sc_hd__mux2_1
*I *1262:A I *D sky130_fd_sc_hd__nand2_1
*I *1089:A1 I *D sky130_fd_sc_hd__a211o_1
*I *1263:A I *D sky130_fd_sc_hd__or2_1
*I *1082:A I *D sky130_fd_sc_hd__inv_2
*I *1093:B_N I *D sky130_fd_sc_hd__or2b_1
*I *1098:B I *D sky130_fd_sc_hd__xnor2_1
*I *1340:Q O *D sky130_fd_sc_hd__dfrtp_4
*CAP
1 *1241:A1 0
2 *1262:A 0.000316405
3 *1089:A1 0
4 *1263:A 0.000353295
5 *1082:A 3.81334e-05
6 *1093:B_N 3.35304e-05
7 *1098:B 0.000303665
8 *1340:Q 0.000532886
9 *355:78 0.000435407
10 *355:59 0.000568758
11 *355:48 0.000830962
12 *355:20 0.000542296
13 *355:18 0.00241653
14 *355:10 0.00204795
15 *1098:B *1097:A 8.05637e-05
16 *1098:B *1098:A 3.12855e-05
17 *355:10 *1081:A 7.81876e-05
18 *1088:A1 *355:48 3.72081e-05
19 *1089:A2 *1262:A 2.75145e-05
20 *1089:A2 *355:78 2.97004e-06
21 *1089:B1 *1263:A 0.00013475
22 *1089:B1 *355:48 2.59545e-05
23 *1089:B1 *355:78 0.000191445
24 *1089:C1 *1262:A 4.24164e-05
25 *1089:C1 *355:78 1.08758e-05
26 *1097:B *1098:B 0.000699829
27 *1097:B *355:20 0.000151141
28 *1100:A2 *1098:B 2.41525e-05
29 *1100:A2 *355:20 0.000112732
30 *1116:A1 *1263:A 3.12916e-05
31 *1116:B1 *355:48 7.03276e-05
32 *1120:A_N *1098:B 7.02789e-05
33 *1124:D1 *355:48 8.41703e-06
34 *1241:A0 *355:10 0.00025146
35 *1251:A1 *355:20 0.000212169
36 *1251:A1 *355:48 0.000349104
37 *1262:B *1262:A 3.69812e-05
38 *1263:B *1263:A 0.00012398
39 *1276:A1 *355:48 0.000153269
40 *1277:B *355:48 0.000265917
41 *1347:D *355:48 5.74784e-06
42 *1426:A *355:10 0
43 *1433:A *355:48 0
44 *30:58 *355:10 0
45 *99:31 *1262:A 8.2178e-05
46 *99:31 *355:78 4.77807e-05
47 *102:18 *1262:A 3.26889e-05
48 *102:28 *1082:A 5.07702e-05
49 *102:28 *355:59 0.00010946
50 *105:16 *1262:A 3.06569e-06
51 *108:27 *355:20 6.54361e-06
52 *111:14 *1098:B 5.92191e-05
53 *115:10 *1098:B 0.000223549
54 *120:18 *355:48 0.000482562
55 *129:52 *355:20 0.00027687
56 *129:52 *355:48 3.12537e-05
57 *224:6 *1262:A 2.01737e-05
58 *256:353 *355:10 0.000142789
59 *256:355 *355:10 5.20332e-05
60 *256:355 *355:18 1.29987e-05
61 *256:459 *355:48 1.27334e-05
62 *256:465 *355:18 0.00081147
63 *256:480 *355:18 0.000113242
64 *257:10 *355:10 0
*RES
1 *1340:Q *355:10 14.88 
2 *355:10 *355:18 4.55537 
3 *355:18 *355:20 6.0975 
4 *355:20 *1098:B 13.905 
5 *355:20 *1093:B_N 4.05 
6 *355:18 *355:48 17.1725 
7 *355:48 *1082:A 2.395 
8 *355:48 *355:59 3.83 
9 *355:59 *1263:A 10.185 
10 *355:59 *355:78 4.85 
11 *355:78 *1089:A1 1.6 
12 *355:78 *1262:A 6.385 
13 *355:10 *1241:A1 3.6 
*END

*D_NET *356 0.000183038
*CONN
*I *1083:A I *D sky130_fd_sc_hd__clkbuf_4
*I *1341:Q O *D sky130_fd_sc_hd__dfrtp_1
*CAP
1 *1083:A 8.64416e-05
2 *1341:Q 8.64416e-05
3 *99:8 *1083:A 1.01551e-05
*RES
1 *1341:Q *1083:A 4.355 
*END

*D_NET *357 0.000295105
*CONN
*I *1086:A I *D sky130_fd_sc_hd__clkbuf_4
*I *1342:Q O *D sky130_fd_sc_hd__dfrtp_1
*CAP
1 *1086:A 7.9719e-05
2 *1342:Q 7.9719e-05
3 *247:68 *1086:A 0.000135667
*RES
1 *1342:Q *1086:A 8.835 
*END

*D_NET *358 0.00188495
*CONN
*I *1098:A I *D sky130_fd_sc_hd__xnor2_1
*I *1235:A0 I *D sky130_fd_sc_hd__mux2_1
*I *1330:Q O *D sky130_fd_sc_hd__dfrtp_1
*CAP
1 *1098:A 0.000229506
2 *1235:A0 0.000272309
3 *1330:Q 0.000151157
4 *358:6 0.000652973
5 *1098:A *1097:A 0.000309221
6 *1235:A0 *359:12 6.23541e-06
7 *1098:B *1098:A 3.12855e-05
8 *1330:RESET_B *1235:A0 0.000135009
9 *1330:RESET_B *358:6 2.69217e-05
10 *1373:A *1235:A0 7.03276e-05
*RES
1 *1330:Q *358:6 3.43 
2 *358:6 *1235:A0 9.665 
3 *358:6 *1098:A 10.55 
*END

*D_NET *359 0.00361121
*CONN
*I *1097:A I *D sky130_fd_sc_hd__xnor2_1
*I *1237:A0 I *D sky130_fd_sc_hd__mux2_1
*I *1331:Q O *D sky130_fd_sc_hd__dfrtp_1
*CAP
1 *1097:A 0.000474309
2 *1237:A0 0.000516474
3 *1331:Q 0.00019824
4 *359:12 0.00118902
5 *1098:A *1097:A 0.000309221
6 *1098:B *1097:A 8.05637e-05
7 *1235:A0 *359:12 6.23541e-06
8 *1235:S *359:12 0.00019898
9 *1330:CLK *1237:A0 0.000159499
10 *1330:D *359:12 1.59888e-05
11 *1330:RESET_B *1097:A 0.000117763
12 *1330:RESET_B *1237:A0 0.000117
13 *1364:A *1237:A0 8.52972e-05
14 *1373:A *359:12 0.000142616
*RES
1 *1331:Q *359:12 9.83 
2 *359:12 *1237:A0 8.26 
3 *359:12 *1097:A 13.925 
*END

*D_NET *360 0.00174146
*CONN
*I *1096:A I *D sky130_fd_sc_hd__xnor2_1
*I *1239:A0 I *D sky130_fd_sc_hd__mux2_1
*I *1332:Q O *D sky130_fd_sc_hd__dfrtp_1
*CAP
1 *1096:A 0.000322895
2 *1239:A0 0.000489281
3 *1332:Q 0
4 *360:4 0.000812176
5 *1332:RESET_B *1239:A0 0.000117112
*RES
1 *1332:Q *360:4 1.6 
2 *360:4 *1239:A0 11.405 
3 *360:4 *1096:A 6.22 
*END

*D_NET *361 0.00393929
*CONN
*I *1093:A I *D sky130_fd_sc_hd__or2b_1
*I *1092:A2 I *D sky130_fd_sc_hd__a221oi_2
*I *1229:A0 I *D sky130_fd_sc_hd__mux2_1
*I *1327:Q O *D sky130_fd_sc_hd__dfrtp_1
*CAP
1 *1093:A 0.000114223
2 *1092:A2 0
3 *1229:A0 0
4 *1327:Q 0.000506166
5 *361:25 0.00104811
6 *361:12 0.00144005
7 *361:25 *1092:B1 7.58431e-05
8 *1092:A1 *361:25 4.89362e-05
9 *1095:C1 *1093:A 2.14005e-05
10 *1095:C1 *361:25 0.000198752
11 *1327:RESET_B *361:12 0.000222743
12 *108:16 *361:25 1.33269e-05
13 *126:25 *361:25 5.05521e-05
14 *126:32 *361:25 1.61831e-05
15 *126:36 *361:12 4.05363e-05
16 *126:115 *361:25 0.000124839
17 *244:46 *361:12 1.76277e-05
18 *244:50 *361:12 0
*RES
1 *1327:Q *361:12 12.68 
2 *361:12 *1229:A0 1.6 
3 *361:12 *361:25 12.66 
4 *361:25 *1092:A2 1.6 
5 *361:25 *1093:A 3.61 
*END

*D_NET *362 0.00359077
*CONN
*I *1095:A2 I *D sky130_fd_sc_hd__o2111a_1
*I *1092:B1 I *D sky130_fd_sc_hd__a221oi_2
*I *1231:A0 I *D sky130_fd_sc_hd__mux2_1
*I *1328:Q O *D sky130_fd_sc_hd__dfrtp_1
*CAP
1 *1095:A2 0
2 *1092:B1 0.00018435
3 *1231:A0 0.000518328
4 *1328:Q 0
5 *362:27 0.000773581
6 *362:4 0.00110756
7 *362:27 *1091:A_N 4.66108e-05
8 *1092:C1 *1092:B1 4.23114e-05
9 *1092:C1 *362:27 2.11084e-05
10 *1095:A1 *1092:B1 5.69161e-05
11 *1095:A1 *362:27 4.77719e-05
12 *1231:A1 *1231:A0 0
13 *1234:A *362:27 0.000239813
14 *1328:D *1231:A0 8.32227e-05
15 *1328:RESET_B *1231:A0 2.65337e-05
16 *102:38 *1092:B1 0
17 *102:38 *362:27 4.99619e-05
18 *102:49 *362:27 0.000239383
19 *126:25 *1231:A0 4.82299e-05
20 *162:55 *1231:A0 0
21 *256:673 *1231:A0 2.92488e-05
22 *361:25 *1092:B1 7.58431e-05
*RES
1 *1328:Q *362:4 1.6 
2 *362:4 *1231:A0 13.655 
3 *362:4 *362:27 10.59 
4 *362:27 *1092:B1 8.54 
5 *362:27 *1095:A2 1.6 
*END

*D_NET *363 0.00180305
*CONN
*I *1233:A0 I *D sky130_fd_sc_hd__mux2_1
*I *1091:A_N I *D sky130_fd_sc_hd__and2b_1
*I *1094:B_N I *D sky130_fd_sc_hd__or2b_1
*I *1329:Q O *D sky130_fd_sc_hd__dfrtp_1
*CAP
1 *1233:A0 7.82721e-05
2 *1091:A_N 8.29721e-05
3 *1094:B_N 0.000150138
4 *1329:Q 2.82066e-05
5 *363:12 0.000310342
6 *363:8 0.000183711
7 *1233:A1 *1094:B_N 0.000235568
8 *1233:S *1233:A0 0.000111285
9 *1233:S *363:8 4.99619e-05
10 *1380:A *1091:A_N 7.16445e-05
11 *1380:A *1233:A0 2.49909e-05
12 *1380:A *363:8 1.61831e-05
13 *1380:A *363:12 3.98757e-05
14 *126:115 *363:12 0
15 *244:8 *1094:B_N 3.45679e-05
16 *244:10 *1091:A_N 7.61149e-05
17 *244:10 *363:12 0.000155948
18 *244:36 *1091:A_N 0.000106655
19 *362:27 *1091:A_N 4.66108e-05
*RES
1 *1329:Q *363:8 2.41 
2 *363:8 *363:12 3.89 
3 *363:12 *1094:B_N 6.81 
4 *363:12 *1091:A_N 6.195 
5 *363:8 *1233:A0 3.43 
*END

*D_NET *364 0.00330813
*CONN
*I *1108:A2 I *D sky130_fd_sc_hd__a2111o_2
*I *1105:A2 I *D sky130_fd_sc_hd__o21ai_1
*I *1223:A0 I *D sky130_fd_sc_hd__mux2_1
*I *1324:Q O *D sky130_fd_sc_hd__dfrtp_1
*CAP
1 *1108:A2 0
2 *1105:A2 0.000195487
3 *1223:A0 0.000330618
4 *1324:Q 5.73468e-05
5 *364:23 0.000645065
6 *364:8 0.000837543
7 *364:23 *365:8 2.49909e-05
8 *1092:A1 *1105:A2 1.81518e-05
9 *1108:B1 *1105:A2 0.000161794
10 *1108:C1 *364:23 4.66742e-05
11 *1223:A1 *1223:A0 4.89295e-05
12 *1223:S *1223:A0 8.64421e-05
13 *1225:A1 *364:23 0
14 *1226:A *364:8 0.000117327
15 *1226:A *364:23 0.000164924
16 *1325:RESET_B *364:23 2.65337e-05
17 *1352:A *364:8 9.5799e-06
18 *99:57 *1105:A2 0.000116158
19 *102:38 *1105:A2 0.000116158
20 *256:234 *364:23 0.000145879
21 *256:451 *364:23 0.000158529
*RES
1 *1324:Q *364:8 4.98 
2 *364:8 *1223:A0 8.88 
3 *364:8 *364:23 11.495 
4 *364:23 *1105:A2 9.86 
5 *364:23 *1108:A2 1.6 
*END

*D_NET *365 0.00169781
*CONN
*I *1106:B I *D sky130_fd_sc_hd__xor2_1
*I *1225:A0 I *D sky130_fd_sc_hd__mux2_1
*I *1325:Q O *D sky130_fd_sc_hd__dfrtp_1
*CAP
1 *1106:B 0.000167365
2 *1225:A0 0.000347363
3 *1325:Q 3.98087e-05
4 *365:8 0.000554536
5 *1225:A1 *1106:B 0
6 *1225:A1 *1225:A0 0
7 *99:57 *1225:A0 0
8 *239:18 *1225:A0 6.72027e-05
9 *239:50 *1106:B 0.000249651
10 *239:50 *1225:A0 8.59296e-05
11 *256:246 *1106:B 0.000160967
12 *364:23 *365:8 2.49909e-05
*RES
1 *1325:Q *365:8 4.05 
2 *365:8 *1225:A0 8.685 
3 *365:8 *1106:B 7.65 
*END

*D_NET *366 0.000743817
*CONN
*I *1107:B I *D sky130_fd_sc_hd__xor2_1
*I *1378:A I *D sky130_fd_sc_hd__dlygate4sd3_1
*I *1326:Q O *D sky130_fd_sc_hd__dfrtp_1
*CAP
1 *1107:B 0.000100511
2 *1378:A 0.000228975
3 *1326:Q 0
4 *366:4 0.000329486
5 *1326:RESET_B *1378:A 4.24575e-05
6 *256:256 *1378:A 4.23878e-05
*RES
1 *1326:Q *366:4 1.6 
2 *366:4 *1378:A 8.81 
3 *366:4 *1107:B 3.265 
*END

*D_NET *367 0.0029827
*CONN
*I *1116:A2 I *D sky130_fd_sc_hd__a2111oi_1
*I *1101:A2 I *D sky130_fd_sc_hd__o21ai_1
*I *1104:A2 I *D sky130_fd_sc_hd__a2111o_1
*I *1217:A0 I *D sky130_fd_sc_hd__mux2_1
*I *1321:Q O *D sky130_fd_sc_hd__dfrtp_1
*CAP
1 *1116:A2 6.09605e-05
2 *1101:A2 0.000126737
3 *1104:A2 2.09808e-05
4 *1217:A0 0.000236278
5 *1321:Q 0
6 *367:32 0.000273113
7 *367:23 0.000373311
8 *367:4 0.000503193
9 *1217:A0 *1102:B 7.50687e-05
10 *1116:A1 *1116:A2 8.64599e-05
11 *1116:C1 *1116:A2 0.00014828
12 *1116:C1 *367:32 0.000159165
13 *1217:S *1217:A0 8.64599e-05
14 *1433:A *1101:A2 1.30872e-05
15 *98:98 *367:23 0.000122801
16 *98:98 *367:32 4.89295e-05
17 *98:105 *1116:A2 0.000233581
18 *98:105 *367:32 0.000257892
19 *99:43 *1217:A0 4.83032e-05
20 *120:18 *1101:A2 9.03081e-05
21 *246:20 *367:23 1.77945e-05
*RES
1 *1321:Q *367:4 1.6 
2 *367:4 *1217:A0 9.695 
3 *367:4 *367:23 4.26 
4 *367:23 *1104:A2 1.96 
5 *367:23 *367:32 2.865 
6 *367:32 *1101:A2 7.745 
7 *367:32 *1116:A2 4.12 
*END

*D_NET *368 0.00317828
*CONN
*I *1102:B I *D sky130_fd_sc_hd__xor2_1
*I *1219:A0 I *D sky130_fd_sc_hd__mux2_1
*I *1322:Q O *D sky130_fd_sc_hd__dfrtp_1
*CAP
1 *1102:B 0.000440162
2 *1219:A0 0.000657344
3 *1322:Q 0
4 *368:4 0.00109751
5 *1205:A0 *1102:B 1.14192e-05
6 *1205:A0 *1219:A0 8.54109e-05
7 *1217:A0 *1102:B 7.50687e-05
8 *1217:A1 *1102:B 0.000308018
9 *1217:S *1102:B 2.21074e-05
10 *1322:RESET_B *1219:A0 0.000119066
11 *126:203 *1102:B 0
12 *243:49 *1219:A0 0.000201871
13 *243:62 *1219:A0 0.00016031
14 *246:26 *1102:B 0
*RES
1 *1322:Q *368:4 1.6 
2 *368:4 *1219:A0 9.985 
3 *368:4 *1102:B 13.4 
*END

*D_NET *369 0.000873832
*CONN
*I *1103:B I *D sky130_fd_sc_hd__xor2_1
*I *1221:A0 I *D sky130_fd_sc_hd__mux2_1
*I *1323:Q O *D sky130_fd_sc_hd__dfrtp_1
*CAP
1 *1103:B 0
2 *1221:A0 0.000325855
3 *1323:Q 8.75395e-05
4 *369:12 0.000413395
5 *1087:A *369:12 4.7043e-05
6 *256:273 *369:12 0
*RES
1 *1323:Q *369:12 7.43 
2 *369:12 *1221:A0 6.55 
3 *369:12 *1103:B 1.6 
*END

*D_NET *370 0.00191508
*CONN
*I *1080:A I *D sky130_fd_sc_hd__inv_2
*I *1088:A2 I *D sky130_fd_sc_hd__a221o_1
*I *1211:A0 I *D sky130_fd_sc_hd__mux2_1
*I *1318:Q O *D sky130_fd_sc_hd__dfrtp_1
*CAP
1 *1080:A 0
2 *1088:A2 0.000140634
3 *1211:A0 0.000132007
4 *1318:Q 0.000182935
5 *370:25 0.000398631
6 *370:12 0.00057294
7 *1211:A1 *1211:A0 4.99619e-05
8 *1211:S *1211:A0 4.82919e-05
9 *1268:B1 *1211:A0 0.000189845
10 *1268:B1 *370:12 0.000199833
11 *1268:B1 *370:25 0
12 *126:233 *370:12 0
13 *256:315 *370:25 0
*RES
1 *1318:Q *370:12 9.065 
2 *370:12 *1211:A0 4.465 
3 *370:12 *370:25 8.185 
4 *370:25 *1088:A2 3.6025 
5 *370:25 *1080:A 1.6 
*END

*D_NET *371 0.00289581
*CONN
*I *1213:A0 I *D sky130_fd_sc_hd__mux2_1
*I *1084:B I *D sky130_fd_sc_hd__or2_1
*I *1085:B I *D sky130_fd_sc_hd__nand2_1
*I *1319:Q O *D sky130_fd_sc_hd__dfrtp_1
*CAP
1 *1213:A0 4.61328e-05
2 *1084:B 5.46926e-05
3 *1085:B 0.000174896
4 *1319:Q 0.000320999
5 *371:12 0.00060708
6 *371:10 0.000744623
7 *371:12 *1087:B 0
8 *1084:A *1084:B 1.16578e-05
9 *1084:A *1085:B 3.79351e-05
10 *1212:A *371:10 8.30853e-06
11 *1212:A *371:12 0.000134373
12 *1318:CLK *1213:A0 0.000197822
13 *1319:RESET_B *371:10 1.55837e-05
14 *1390:A *371:10 3.45117e-05
15 *99:33 *1085:B 0.000122801
16 *99:41 *1085:B 8.41384e-05
17 *119:20 *1085:B 0.000115614
18 *119:20 *371:12 2.06767e-05
19 *126:233 *1213:A0 7.45766e-05
20 *256:301 *371:10 8.93847e-05
*RES
1 *1319:Q *371:10 7.845 
2 *371:10 *371:12 6.48 
3 *371:12 *1085:B 7.425 
4 *371:12 *1084:B 4.395 
5 *371:10 *1213:A0 5.43 
*END

*D_NET *372 0.00205079
*CONN
*I *1215:A0 I *D sky130_fd_sc_hd__mux2_1
*I *1087:B I *D sky130_fd_sc_hd__xor2_1
*I *1320:Q O *D sky130_fd_sc_hd__dfrtp_1
*CAP
1 *1215:A0 8.46874e-05
2 *1087:B 0.00029485
3 *1320:Q 0.000176098
4 *372:10 0.000555635
5 *1087:A *1087:B 1.70935e-05
6 *1134:A0 *1215:A0 0.000240244
7 *1318:CLK *1215:A0 8.52972e-05
8 *1318:CLK *372:10 4.58691e-05
9 *1319:RESET_B *372:10 7.5687e-06
10 *126:216 *1215:A0 8.46818e-05
11 *126:223 *1215:A0 0.00042298
12 *246:58 *372:10 1.34618e-05
13 *305:12 *372:10 2.23253e-05
14 *371:12 *1087:B 0
*RES
1 *1320:Q *372:10 6.12 
2 *372:10 *1087:B 8.04 
3 *372:10 *1215:A0 8.19 
*END

*D_NET *373 0.0023877
*CONN
*I *1112:B I *D sky130_fd_sc_hd__and3b_1
*I *1256:A I *D sky130_fd_sc_hd__nand2_2
*I *1114:A I *D sky130_fd_sc_hd__inv_2
*I *1279:A1 I *D sky130_fd_sc_hd__a21oi_1
*I *1343:Q O *D sky130_fd_sc_hd__dfrtp_1
*CAP
1 *1112:B 0
2 *1256:A 0.000260027
3 *1114:A 0.000268425
4 *1279:A1 0
5 *1343:Q 5.0759e-05
6 *373:25 0.000566211
7 *373:21 0.000139593
8 *373:10 0.000152593
9 *1112:A_N *373:21 0
10 *1113:A *373:21 8.46717e-05
11 *1125:B1 *1114:A 1.08758e-05
12 *1252:A1 *1114:A 4.8962e-05
13 *1254:A1 *1114:A 0
14 *1254:A1 *373:10 0.000113572
15 *1279:A2 *373:10 9.09788e-06
16 *97:30 *373:21 9.28507e-05
17 *97:30 *373:25 9.77048e-06
18 *126:64 *1256:A 0.000201786
19 *127:34 *1114:A 3.97106e-05
20 *127:47 *1114:A 0.000129834
21 *127:60 *1114:A 6.81892e-05
22 *127:60 *1256:A 0.000140771
*RES
1 *1343:Q *373:10 6.98 
2 *373:10 *1279:A1 1.6 
3 *373:10 *373:21 2.46 
4 *373:21 *373:25 2.45 
5 *373:25 *1114:A 9.345 
6 *373:25 *1256:A 8.955 
7 *373:21 *1112:B 1.6 
*END

*D_NET *374 0.00145417
*CONN
*I *1099:A I *D sky130_fd_sc_hd__and4_1
*I *1121:A1 I *D sky130_fd_sc_hd__a22oi_1
*I *1404:A I *D sky130_fd_sc_hd__dlygate4sd3_1
*I *1344:Q O *D sky130_fd_sc_hd__dfrtp_1
*CAP
1 *1099:A 2.08101e-05
2 *1121:A1 0.00018486
3 *1404:A 0.000118675
4 *1344:Q 3.75327e-05
5 *374:12 0.000501108
6 *374:6 0.000255917
7 *1121:A1 *375:12 4.92096e-05
8 *1099:B *374:12 3.00381e-05
9 *1121:A2 *1121:A1 0.000228508
10 *115:10 *1121:A1 0
11 *115:10 *374:12 0
12 *134:12 *1121:A1 0
13 *134:12 *374:12 0
14 *245:8 *1404:A 2.75145e-05
*RES
1 *1344:Q *374:6 2.05 
2 *374:6 *374:12 4.775 
3 *374:12 *1404:A 5.43 
4 *374:12 *1121:A1 7.785 
5 *374:6 *1099:A 1.96 
*END

*D_NET *375 0.0032601
*CONN
*I *1405:A I *D sky130_fd_sc_hd__dlygate4sd3_1
*I *1121:B2 I *D sky130_fd_sc_hd__a22oi_1
*I *1095:B1 I *D sky130_fd_sc_hd__o2111a_1
*I *1345:Q O *D sky130_fd_sc_hd__dfrtp_1
*CAP
1 *1405:A 0.000261072
2 *1121:B2 0
3 *1095:B1 0.000524279
4 *1345:Q 0
5 *375:12 0.00100957
6 *375:4 0.000746367
7 *1095:A1 *1095:B1 3.41667e-05
8 *1120:A_N *1095:B1 1.33285e-05
9 *1120:B *1095:B1 8.3303e-06
10 *1121:A1 *375:12 4.92096e-05
11 *1121:A2 *375:12 3.70009e-05
12 *1248:A1 *1095:B1 4.66108e-05
13 *1269:A1 *1405:A 0
14 *1269:A1 *375:12 8.65905e-05
15 *1270:A *1405:A 3.67779e-05
16 *1270:A *375:12 2.11084e-05
17 *1270:B *375:12 1.4399e-05
18 *1271:B1 *1405:A 5.83121e-06
19 *1272:A *1405:A 6.27529e-05
20 *1272:B *1405:A 1.9415e-05
21 *102:49 *1095:B1 1.77595e-05
22 *111:10 *1095:B1 0.000114493
23 *115:10 *375:12 2.72917e-05
24 *115:27 *375:12 4.78868e-05
25 *115:40 *375:12 2.92496e-05
26 *135:6 *1095:B1 4.66108e-05
*RES
1 *1345:Q *375:4 1.6 
2 *375:4 *375:12 10.57 
3 *375:12 *1095:B1 9.115 
4 *375:12 *1121:B2 1.6 
5 *375:4 *1405:A 9.26 
*END

*D_NET *376 0.0018861
*CONN
*I *1273:B1 I *D sky130_fd_sc_hd__o31a_1
*I *1123:B1 I *D sky130_fd_sc_hd__o21ai_1
*I *1105:B1 I *D sky130_fd_sc_hd__o21ai_1
*I *1346:Q O *D sky130_fd_sc_hd__dfrtp_1
*CAP
1 *1273:B1 0.000267054
2 *1123:B1 0.000136248
3 *1105:B1 4.29189e-05
4 *1346:Q 0
5 *376:10 0.000525116
6 *376:4 0.000613003
7 *1092:A1 *1105:B1 3.29947e-05
8 *1092:A1 *1123:B1 2.16999e-05
9 *1092:A1 *376:10 2.12738e-05
10 *1247:A *1123:B1 0
11 *1273:A1 *1273:B1 2.49909e-05
12 *1273:A2 *1273:B1 1.42588e-05
13 *1273:A3 *1273:B1 2.62602e-05
14 *1346:RESET_B *1273:B1 3.6355e-05
15 *1346:RESET_B *376:10 0.000118246
16 *98:18 *376:10 0
17 *116:16 *1273:B1 5.67865e-06
18 *126:48 *376:10 0
*RES
1 *1346:Q *376:4 1.6 
2 *376:4 *376:10 6.5 
3 *376:10 *1105:B1 4.395 
4 *376:10 *1123:B1 5.085 
5 *376:4 *1273:B1 5.43625 
*END

*D_NET *377 0.00292842
*CONN
*I *1117:A I *D sky130_fd_sc_hd__inv_2
*I *1101:B1 I *D sky130_fd_sc_hd__o21ai_1
*I *1276:B1 I *D sky130_fd_sc_hd__o31a_1
*I *1347:Q O *D sky130_fd_sc_hd__dfrtp_1
*CAP
1 *1117:A 0
2 *1101:B1 0.000377054
3 *1276:B1 0.000217468
4 *1347:Q 6.15364e-05
5 *377:25 0.00045953
6 *377:8 0.00036148
7 *1089:B1 *1101:B1 0.000202226
8 *1089:B1 *1276:B1 0.00011626
9 *1089:B1 *377:25 0
10 *1116:B1 *1101:B1 7.09572e-05
11 *1118:B1 *1276:B1 6.8665e-05
12 *1118:B1 *377:25 2.25075e-05
13 *1124:A2 *1276:B1 4.82863e-05
14 *1124:D1 *1276:B1 0.000193801
15 *1276:A2 *1276:B1 4.87465e-06
16 *1276:A3 *1276:B1 2.75889e-05
17 *97:30 *1276:B1 5.44492e-05
18 *98:72 *1101:B1 0.000306852
19 *120:37 *377:8 4.34975e-05
20 *124:38 *1276:B1 0.000113797
21 *126:64 *1101:B1 0.000163199
22 *137:37 *1276:B1 1.4389e-05
23 *139:27 *1101:B1 0
24 *139:27 *1276:B1 0
25 *139:27 *377:25 0
*RES
1 *1347:Q *377:8 4.395 
2 *377:8 *1276:B1 9.135 
3 *377:8 *377:25 3.38 
4 *377:25 *1101:B1 14.495 
5 *377:25 *1117:A 1.6 
*END

*D_NET *378 0.000403789
*CONN
*I *1081:A I *D sky130_fd_sc_hd__inv_2
*I *1348:Q O *D sky130_fd_sc_hd__dfrtp_1
*CAP
1 *1081:A 0.000123316
2 *1348:Q 0.000123316
3 *1426:A *1081:A 7.89689e-05
4 *355:10 *1081:A 7.81876e-05
*RES
1 *1348:Q *1081:A 9.63 
*END
