*SPEF "ieee 1481-1999"
*DESIGN "top"
*DATE "11:11:11 Fri 11 11, 1111"
*VENDOR "OpenRCX"
*PROGRAM "Parallel Extraction"
*VERSION "1.0"
*DESIGN_FLOW "NAME_SCOPE LOCAL" "PIN_CAP NONE"
*DIVIDER /
*DELIMITER :
*BUS_DELIMITER []
*T_UNIT 1 NS
*C_UNIT 1 PF
*R_UNIT 1 OHM
*L_UNIT 1 HENRY

*NAME_MAP
*3 clk
*4 i_valid
*5 i_value0[0]
*6 i_value0[1]
*7 i_value0[2]
*8 i_value1[0]
*9 i_value1[1]
*10 i_value1[2]
*11 i_value2[0]
*12 i_value2[1]
*13 i_value2[2]
*14 i_value3[0]
*15 i_value3[1]
*16 i_value3[2]
*17 i_value4[0]
*18 i_value4[1]
*19 i_value4[2]
*20 o_bucket[0]
*21 o_bucket[1]
*22 o_bucket[2]
*23 o_index[0]
*24 o_index[1]
*25 o_index[2]
*26 o_valid
*27 rst_n
*28 _000_
*29 _001_
*30 _002_
*31 _003_
*32 _004_
*33 _005_
*34 _006_
*35 _007_
*36 _008_
*37 _009_
*38 _010_
*39 _011_
*40 _012_
*41 _013_
*42 _014_
*43 _015_
*44 _016_
*45 _017_
*46 _018_
*47 _019_
*48 _020_
*49 _021_
*50 _022_
*51 _023_
*52 _024_
*53 _025_
*54 _026_
*55 _027_
*56 _028_
*57 _029_
*58 _030_
*59 _031_
*60 _032_
*61 _033_
*62 _034_
*63 _035_
*64 _036_
*65 _037_
*66 _038_
*67 _039_
*68 _040_
*69 _041_
*70 _042_
*71 _043_
*72 _044_
*73 _045_
*74 _046_
*75 _047_
*76 _048_
*77 _049_
*78 _050_
*79 _051_
*80 _052_
*81 _053_
*82 _054_
*83 _055_
*84 _056_
*85 _057_
*86 _058_
*87 _059_
*88 _060_
*89 _061_
*90 _062_
*91 _063_
*92 _064_
*93 _065_
*94 _066_
*95 _067_
*96 _068_
*97 _069_
*98 _070_
*99 _071_
*100 _072_
*101 _073_
*102 _074_
*103 _075_
*104 _076_
*105 _077_
*106 _078_
*107 _079_
*108 _080_
*109 _081_
*110 _082_
*111 _083_
*112 _084_
*113 _085_
*114 _086_
*115 _087_
*116 _088_
*117 _089_
*118 _090_
*119 _091_
*120 _092_
*121 _093_
*122 _094_
*123 _095_
*124 _096_
*125 _097_
*126 _098_
*127 _099_
*128 _100_
*129 _101_
*130 _102_
*131 _103_
*132 _104_
*133 _105_
*134 _106_
*135 _107_
*136 _108_
*137 _109_
*138 _110_
*139 _111_
*140 _112_
*141 _113_
*142 _114_
*143 _115_
*144 _116_
*145 _117_
*146 _118_
*147 _119_
*148 _120_
*149 _121_
*150 _122_
*151 _123_
*152 _124_
*153 _125_
*154 _126_
*155 _127_
*156 _128_
*157 _129_
*158 _130_
*159 _131_
*160 _132_
*161 _133_
*162 _134_
*163 _135_
*164 _136_
*165 _137_
*166 _138_
*167 _139_
*168 _140_
*169 _141_
*170 _142_
*171 _143_
*172 _144_
*173 _145_
*174 _146_
*175 _147_
*176 _148_
*177 _149_
*178 _150_
*179 _151_
*180 _152_
*181 _153_
*182 _154_
*183 _155_
*184 _156_
*185 _157_
*186 _158_
*187 _159_
*188 _160_
*189 _161_
*190 _162_
*191 _163_
*192 _164_
*193 _165_
*194 _166_
*195 _167_
*196 _168_
*197 _169_
*198 _170_
*199 _171_
*200 _172_
*201 _173_
*202 _174_
*203 _175_
*204 _176_
*205 _177_
*206 _178_
*207 _179_
*208 _180_
*209 _181_
*210 _182_
*211 _183_
*212 _184_
*213 _185_
*214 _186_
*215 _187_
*216 _188_
*217 _189_
*218 _190_
*219 _191_
*220 _192_
*221 _193_
*222 _194_
*223 _195_
*224 _196_
*225 _197_
*226 _198_
*227 _199_
*228 _200_
*229 _201_
*230 _202_
*231 _203_
*232 _204_
*233 _205_
*234 _206_
*235 _207_
*236 _208_
*237 _209_
*238 _210_
*239 clknet_0_clk
*240 clknet_3_0__leaf_clk
*241 clknet_3_1__leaf_clk
*242 clknet_3_2__leaf_clk
*243 clknet_3_3__leaf_clk
*244 clknet_3_4__leaf_clk
*245 clknet_3_5__leaf_clk
*246 clknet_3_6__leaf_clk
*247 clknet_3_7__leaf_clk
*248 net1
*249 net10
*250 net11
*251 net12
*252 net13
*253 net14
*254 net15
*255 net16
*256 net17
*257 net18
*258 net19
*259 net2
*260 net20
*261 net21
*262 net22
*263 net23
*264 net24
*265 net25
*266 net26
*267 net27
*268 net28
*269 net29
*270 net3
*271 net30
*272 net31
*273 net32
*274 net33
*275 net34
*276 net35
*277 net36
*278 net37
*279 net38
*280 net39
*281 net4
*282 net40
*283 net41
*284 net42
*285 net43
*286 net44
*287 net45
*288 net46
*289 net47
*290 net48
*291 net49
*292 net5
*293 net50
*294 net51
*295 net52
*296 net53
*297 net54
*298 net55
*299 net56
*300 net57
*301 net58
*302 net59
*303 net6
*304 net60
*305 net61
*306 net62
*307 net63
*308 net64
*309 net65
*310 net66
*311 net67
*312 net68
*313 net69
*314 net7
*315 net70
*316 net71
*317 net72
*318 net73
*319 net8
*320 net9
*321 u_am0\.b_i\[0\]
*322 u_am0\.b_i\[1\]
*323 u_am0\.b_i\[2\]
*324 u_am0\.i_index\[0\]
*325 u_am0\.i_index\[1\]
*326 u_am0\.i_index\[2\]
*327 u_am0\.max\[0\]
*328 u_am0\.max\[1\]
*329 u_am0\.max\[2\]
*330 u_am1\.b_i\[0\]
*331 u_am1\.b_i\[1\]
*332 u_am1\.b_i\[2\]
*333 u_am1\.max\[0\]
*334 u_am1\.max\[1\]
*335 u_am1\.max\[2\]
*336 u_am2\.b_i\[0\]
*337 u_am2\.b_i\[1\]
*338 u_am2\.b_i\[2\]
*339 u_am2\.max\[0\]
*340 u_am2\.max\[1\]
*341 u_am2\.max\[2\]
*342 u_am3\.b_i\[0\]
*343 u_am3\.b_i\[1\]
*344 u_am3\.b_i\[2\]
*345 u_am3\.max\[0\]
*346 u_am3\.max\[1\]
*347 u_am3\.max\[2\]
*348 u_am4\.b_i\[0\]
*349 u_am4\.b_i\[1\]
*350 u_am4\.b_i\[2\]
*351 u_am4\.max\[0\]
*352 u_am4\.max\[1\]
*353 u_am4\.max\[2\]
*354 u_control\.o_start_sort
*355 u_sort\.bucket_counter\[0\]
*356 u_sort\.bucket_counter\[1\]
*357 u_sort\.bucket_counter\[2\]
*358 u_sort\.bucket_reg\[0\]\[0\]
*359 u_sort\.bucket_reg\[0\]\[1\]
*360 u_sort\.bucket_reg\[0\]\[2\]
*361 u_sort\.bucket_reg\[1\]\[0\]
*362 u_sort\.bucket_reg\[1\]\[1\]
*363 u_sort\.bucket_reg\[1\]\[2\]
*364 u_sort\.bucket_reg\[2\]\[0\]
*365 u_sort\.bucket_reg\[2\]\[1\]
*366 u_sort\.bucket_reg\[2\]\[2\]
*367 u_sort\.bucket_reg\[3\]\[0\]
*368 u_sort\.bucket_reg\[3\]\[1\]
*369 u_sort\.bucket_reg\[3\]\[2\]
*370 u_sort\.bucket_reg\[4\]\[0\]
*371 u_sort\.bucket_reg\[4\]\[1\]
*372 u_sort\.bucket_reg\[4\]\[2\]
*373 u_sort\.busy
*374 u_sort\.valid_reg\[0\]
*375 u_sort\.valid_reg\[1\]
*376 u_sort\.valid_reg\[2\]
*377 u_sort\.valid_reg\[3\]
*378 u_sort\.valid_reg\[4\]
*379 FILLER_0_0_109
*380 FILLER_0_0_113
*381 FILLER_0_0_125
*382 FILLER_0_0_137
*383 FILLER_0_0_141
*384 FILLER_0_0_15
*385 FILLER_0_0_153
*386 FILLER_0_0_165
*387 FILLER_0_0_169
*388 FILLER_0_0_181
*389 FILLER_0_0_189
*390 FILLER_0_0_27
*391 FILLER_0_0_29
*392 FILLER_0_0_3
*393 FILLER_0_0_41
*394 FILLER_0_0_53
*395 FILLER_0_0_57
*396 FILLER_0_0_69
*397 FILLER_0_0_81
*398 FILLER_0_0_85
*399 FILLER_0_0_97
*400 FILLER_0_10_127
*401 FILLER_0_10_139
*402 FILLER_0_10_141
*403 FILLER_0_10_147
*404 FILLER_0_10_175
*405 FILLER_0_10_26
*406 FILLER_0_10_29
*407 FILLER_0_10_85
*408 FILLER_0_10_89
*409 FILLER_0_11_101
*410 FILLER_0_11_110
*411 FILLER_0_11_119
*412 FILLER_0_11_13
*413 FILLER_0_11_130
*414 FILLER_0_11_134
*415 FILLER_0_11_166
*416 FILLER_0_11_169
*417 FILLER_0_11_177
*418 FILLER_0_11_3
*419 FILLER_0_11_36
*420 FILLER_0_11_48
*421 FILLER_0_11_53
*422 FILLER_0_11_74
*423 FILLER_0_11_9
*424 FILLER_0_11_95
*425 FILLER_0_12_101
*426 FILLER_0_12_113
*427 FILLER_0_12_137
*428 FILLER_0_12_14
*429 FILLER_0_12_147
*430 FILLER_0_12_159
*431 FILLER_0_12_171
*432 FILLER_0_12_175
*433 FILLER_0_12_185
*434 FILLER_0_12_27
*435 FILLER_0_12_39
*436 FILLER_0_12_6
*437 FILLER_0_12_65
*438 FILLER_0_12_85
*439 FILLER_0_12_91
*440 FILLER_0_13_10
*441 FILLER_0_13_111
*442 FILLER_0_13_113
*443 FILLER_0_13_121
*444 FILLER_0_13_127
*445 FILLER_0_13_133
*446 FILLER_0_13_138
*447 FILLER_0_13_150
*448 FILLER_0_13_158
*449 FILLER_0_13_162
*450 FILLER_0_13_169
*451 FILLER_0_13_21
*452 FILLER_0_13_51
*453 FILLER_0_13_55
*454 FILLER_0_13_57
*455 FILLER_0_13_6
*456 FILLER_0_13_63
*457 FILLER_0_13_73
*458 FILLER_0_13_81
*459 FILLER_0_14_107
*460 FILLER_0_14_118
*461 FILLER_0_14_130
*462 FILLER_0_14_141
*463 FILLER_0_14_153
*464 FILLER_0_14_161
*465 FILLER_0_14_173
*466 FILLER_0_14_185
*467 FILLER_0_14_193
*468 FILLER_0_14_26
*469 FILLER_0_14_29
*470 FILLER_0_14_47
*471 FILLER_0_14_55
*472 FILLER_0_14_77
*473 FILLER_0_14_83
*474 FILLER_0_14_85
*475 FILLER_0_14_91
*476 FILLER_0_14_95
*477 FILLER_0_15_102
*478 FILLER_0_15_108
*479 FILLER_0_15_147
*480 FILLER_0_15_15
*481 FILLER_0_15_169
*482 FILLER_0_15_181
*483 FILLER_0_15_19
*484 FILLER_0_15_191
*485 FILLER_0_15_195
*486 FILLER_0_15_28
*487 FILLER_0_15_3
*488 FILLER_0_15_40
*489 FILLER_0_15_68
*490 FILLER_0_15_72
*491 FILLER_0_16_110
*492 FILLER_0_16_118
*493 FILLER_0_16_123
*494 FILLER_0_16_139
*495 FILLER_0_16_151
*496 FILLER_0_16_170
*497 FILLER_0_16_21
*498 FILLER_0_16_27
*499 FILLER_0_16_29
*500 FILLER_0_16_37
*501 FILLER_0_16_6
*502 FILLER_0_16_68
*503 FILLER_0_16_82
*504 FILLER_0_16_85
*505 FILLER_0_16_89
*506 FILLER_0_17_10
*507 FILLER_0_17_105
*508 FILLER_0_17_111
*509 FILLER_0_17_123
*510 FILLER_0_17_162
*511 FILLER_0_17_178
*512 FILLER_0_17_184
*513 FILLER_0_17_43
*514 FILLER_0_17_51
*515 FILLER_0_17_6
*516 FILLER_0_17_77
*517 FILLER_0_17_81
*518 FILLER_0_18_112
*519 FILLER_0_18_124
*520 FILLER_0_18_138
*521 FILLER_0_18_141
*522 FILLER_0_18_145
*523 FILLER_0_18_153
*524 FILLER_0_18_160
*525 FILLER_0_18_168
*526 FILLER_0_18_192
*527 FILLER_0_18_23
*528 FILLER_0_18_38
*529 FILLER_0_18_44
*530 FILLER_0_18_82
*531 FILLER_0_18_85
*532 FILLER_0_18_97
*533 FILLER_0_19_113
*534 FILLER_0_19_121
*535 FILLER_0_19_127
*536 FILLER_0_19_149
*537 FILLER_0_19_157
*538 FILLER_0_19_165
*539 FILLER_0_19_169
*540 FILLER_0_19_181
*541 FILLER_0_19_3
*542 FILLER_0_19_45
*543 FILLER_0_19_53
*544 FILLER_0_19_66
*545 FILLER_0_19_75
*546 FILLER_0_19_79
*547 FILLER_0_19_83
*548 FILLER_0_1_105
*549 FILLER_0_1_111
*550 FILLER_0_1_113
*551 FILLER_0_1_125
*552 FILLER_0_1_137
*553 FILLER_0_1_149
*554 FILLER_0_1_15
*555 FILLER_0_1_161
*556 FILLER_0_1_167
*557 FILLER_0_1_169
*558 FILLER_0_1_181
*559 FILLER_0_1_193
*560 FILLER_0_1_27
*561 FILLER_0_1_3
*562 FILLER_0_1_39
*563 FILLER_0_1_51
*564 FILLER_0_1_55
*565 FILLER_0_1_57
*566 FILLER_0_1_69
*567 FILLER_0_1_81
*568 FILLER_0_1_93
*569 FILLER_0_20_100
*570 FILLER_0_20_121
*571 FILLER_0_20_133
*572 FILLER_0_20_139
*573 FILLER_0_20_141
*574 FILLER_0_20_153
*575 FILLER_0_20_165
*576 FILLER_0_20_18
*577 FILLER_0_20_192
*578 FILLER_0_20_27
*579 FILLER_0_20_39
*580 FILLER_0_20_47
*581 FILLER_0_20_6
*582 FILLER_0_20_73
*583 FILLER_0_20_85
*584 FILLER_0_20_91
*585 FILLER_0_21_10
*586 FILLER_0_21_113
*587 FILLER_0_21_121
*588 FILLER_0_21_139
*589 FILLER_0_21_147
*590 FILLER_0_21_158
*591 FILLER_0_21_16
*592 FILLER_0_21_166
*593 FILLER_0_21_169
*594 FILLER_0_21_181
*595 FILLER_0_21_193
*596 FILLER_0_21_25
*597 FILLER_0_21_46
*598 FILLER_0_21_54
*599 FILLER_0_21_57
*600 FILLER_0_21_6
*601 FILLER_0_21_62
*602 FILLER_0_21_74
*603 FILLER_0_21_86
*604 FILLER_0_22_108
*605 FILLER_0_22_116
*606 FILLER_0_22_128
*607 FILLER_0_22_133
*608 FILLER_0_22_139
*609 FILLER_0_22_141
*610 FILLER_0_22_190
*611 FILLER_0_22_23
*612 FILLER_0_22_27
*613 FILLER_0_22_29
*614 FILLER_0_22_50
*615 FILLER_0_22_54
*616 FILLER_0_22_75
*617 FILLER_0_22_81
*618 FILLER_0_22_85
*619 FILLER_0_22_97
*620 FILLER_0_23_109
*621 FILLER_0_23_113
*622 FILLER_0_23_125
*623 FILLER_0_23_129
*624 FILLER_0_23_133
*625 FILLER_0_23_144
*626 FILLER_0_23_163
*627 FILLER_0_23_167
*628 FILLER_0_23_169
*629 FILLER_0_23_27
*630 FILLER_0_23_3
*631 FILLER_0_23_54
*632 FILLER_0_23_66
*633 FILLER_0_23_9
*634 FILLER_0_23_97
*635 FILLER_0_24_104
*636 FILLER_0_24_110
*637 FILLER_0_24_118
*638 FILLER_0_24_126
*639 FILLER_0_24_144
*640 FILLER_0_24_176
*641 FILLER_0_24_191
*642 FILLER_0_24_195
*643 FILLER_0_24_25
*644 FILLER_0_24_29
*645 FILLER_0_24_41
*646 FILLER_0_24_53
*647 FILLER_0_24_6
*648 FILLER_0_24_71
*649 FILLER_0_24_83
*650 FILLER_0_24_85
*651 FILLER_0_24_93
*652 FILLER_0_25_113
*653 FILLER_0_25_122
*654 FILLER_0_25_134
*655 FILLER_0_25_146
*656 FILLER_0_25_158
*657 FILLER_0_25_166
*658 FILLER_0_25_169
*659 FILLER_0_25_186
*660 FILLER_0_25_19
*661 FILLER_0_25_40
*662 FILLER_0_25_52
*663 FILLER_0_25_6
*664 FILLER_0_25_77
*665 FILLER_0_25_83
*666 FILLER_0_26_107
*667 FILLER_0_26_123
*668 FILLER_0_26_141
*669 FILLER_0_26_153
*670 FILLER_0_26_165
*671 FILLER_0_26_23
*672 FILLER_0_26_27
*673 FILLER_0_26_49
*674 FILLER_0_26_61
*675 FILLER_0_26_82
*676 FILLER_0_26_88
*677 FILLER_0_27_10
*678 FILLER_0_27_108
*679 FILLER_0_27_113
*680 FILLER_0_27_125
*681 FILLER_0_27_149
*682 FILLER_0_27_161
*683 FILLER_0_27_167
*684 FILLER_0_27_169
*685 FILLER_0_27_18
*686 FILLER_0_27_181
*687 FILLER_0_27_187
*688 FILLER_0_27_27
*689 FILLER_0_27_3
*690 FILLER_0_27_35
*691 FILLER_0_27_39
*692 FILLER_0_27_48
*693 FILLER_0_27_57
*694 FILLER_0_27_68
*695 FILLER_0_27_95
*696 FILLER_0_28_134
*697 FILLER_0_28_141
*698 FILLER_0_28_153
*699 FILLER_0_28_165
*700 FILLER_0_28_173
*701 FILLER_0_28_18
*702 FILLER_0_28_26
*703 FILLER_0_28_29
*704 FILLER_0_28_35
*705 FILLER_0_28_45
*706 FILLER_0_28_6
*707 FILLER_0_28_73
*708 FILLER_0_28_85
*709 FILLER_0_29_111
*710 FILLER_0_29_129
*711 FILLER_0_29_141
*712 FILLER_0_29_153
*713 FILLER_0_29_165
*714 FILLER_0_29_169
*715 FILLER_0_29_181
*716 FILLER_0_29_189
*717 FILLER_0_29_23
*718 FILLER_0_29_32
*719 FILLER_0_29_68
*720 FILLER_0_29_76
*721 FILLER_0_29_98
*722 FILLER_0_2_109
*723 FILLER_0_2_121
*724 FILLER_0_2_133
*725 FILLER_0_2_139
*726 FILLER_0_2_141
*727 FILLER_0_2_153
*728 FILLER_0_2_165
*729 FILLER_0_2_177
*730 FILLER_0_2_189
*731 FILLER_0_2_19
*732 FILLER_0_2_195
*733 FILLER_0_2_27
*734 FILLER_0_2_29
*735 FILLER_0_2_41
*736 FILLER_0_2_45
*737 FILLER_0_2_69
*738 FILLER_0_2_81
*739 FILLER_0_2_85
*740 FILLER_0_2_97
*741 FILLER_0_30_109
*742 FILLER_0_30_115
*743 FILLER_0_30_119
*744 FILLER_0_30_131
*745 FILLER_0_30_139
*746 FILLER_0_30_141
*747 FILLER_0_30_153
*748 FILLER_0_30_165
*749 FILLER_0_30_177
*750 FILLER_0_30_189
*751 FILLER_0_30_195
*752 FILLER_0_30_44
*753 FILLER_0_30_56
*754 FILLER_0_30_6
*755 FILLER_0_30_68
*756 FILLER_0_30_80
*757 FILLER_0_30_85
*758 FILLER_0_30_97
*759 FILLER_0_31_105
*760 FILLER_0_31_111
*761 FILLER_0_31_113
*762 FILLER_0_31_125
*763 FILLER_0_31_13
*764 FILLER_0_31_137
*765 FILLER_0_31_149
*766 FILLER_0_31_161
*767 FILLER_0_31_167
*768 FILLER_0_31_169
*769 FILLER_0_31_181
*770 FILLER_0_31_193
*771 FILLER_0_31_3
*772 FILLER_0_31_46
*773 FILLER_0_31_54
*774 FILLER_0_31_57
*775 FILLER_0_31_69
*776 FILLER_0_31_81
*777 FILLER_0_31_93
*778 FILLER_0_32_109
*779 FILLER_0_32_113
*780 FILLER_0_32_125
*781 FILLER_0_32_137
*782 FILLER_0_32_141
*783 FILLER_0_32_15
*784 FILLER_0_32_153
*785 FILLER_0_32_165
*786 FILLER_0_32_169
*787 FILLER_0_32_181
*788 FILLER_0_32_189
*789 FILLER_0_32_22
*790 FILLER_0_32_29
*791 FILLER_0_32_41
*792 FILLER_0_32_53
*793 FILLER_0_32_57
*794 FILLER_0_32_69
*795 FILLER_0_32_81
*796 FILLER_0_32_85
*797 FILLER_0_32_9
*798 FILLER_0_32_97
*799 FILLER_0_3_102
*800 FILLER_0_3_110
*801 FILLER_0_3_121
*802 FILLER_0_3_133
*803 FILLER_0_3_145
*804 FILLER_0_3_157
*805 FILLER_0_3_165
*806 FILLER_0_3_169
*807 FILLER_0_3_181
*808 FILLER_0_3_193
*809 FILLER_0_3_23
*810 FILLER_0_3_35
*811 FILLER_0_3_47
*812 FILLER_0_3_55
*813 FILLER_0_3_57
*814 FILLER_0_3_61
*815 FILLER_0_4_121
*816 FILLER_0_4_133
*817 FILLER_0_4_139
*818 FILLER_0_4_141
*819 FILLER_0_4_153
*820 FILLER_0_4_165
*821 FILLER_0_4_177
*822 FILLER_0_4_189
*823 FILLER_0_4_195
*824 FILLER_0_4_20
*825 FILLER_0_4_29
*826 FILLER_0_4_3
*827 FILLER_0_4_37
*828 FILLER_0_4_46
*829 FILLER_0_4_58
*830 FILLER_0_4_66
*831 FILLER_0_4_81
*832 FILLER_0_4_85
*833 FILLER_0_4_97
*834 FILLER_0_5_10
*835 FILLER_0_5_111
*836 FILLER_0_5_113
*837 FILLER_0_5_119
*838 FILLER_0_5_140
*839 FILLER_0_5_152
*840 FILLER_0_5_164
*841 FILLER_0_5_169
*842 FILLER_0_5_181
*843 FILLER_0_5_189
*844 FILLER_0_5_40
*845 FILLER_0_5_49
*846 FILLER_0_5_55
*847 FILLER_0_5_57
*848 FILLER_0_5_6
*849 FILLER_0_5_69
*850 FILLER_0_5_89
*851 FILLER_0_6_109
*852 FILLER_0_6_121
*853 FILLER_0_6_133
*854 FILLER_0_6_139
*855 FILLER_0_6_141
*856 FILLER_0_6_153
*857 FILLER_0_6_165
*858 FILLER_0_6_177
*859 FILLER_0_6_189
*860 FILLER_0_6_195
*861 FILLER_0_6_22
*862 FILLER_0_6_27
*863 FILLER_0_6_6
*864 FILLER_0_6_69
*865 FILLER_0_6_82
*866 FILLER_0_6_85
*867 FILLER_0_6_97
*868 FILLER_0_7_10
*869 FILLER_0_7_106
*870 FILLER_0_7_113
*871 FILLER_0_7_125
*872 FILLER_0_7_131
*873 FILLER_0_7_143
*874 FILLER_0_7_155
*875 FILLER_0_7_167
*876 FILLER_0_7_169
*877 FILLER_0_7_181
*878 FILLER_0_7_193
*879 FILLER_0_7_27
*880 FILLER_0_7_39
*881 FILLER_0_7_48
*882 FILLER_0_7_57
*883 FILLER_0_7_6
*884 FILLER_0_7_63
*885 FILLER_0_7_95
*886 FILLER_0_8_138
*887 FILLER_0_8_168
*888 FILLER_0_8_192
*889 FILLER_0_8_26
*890 FILLER_0_8_29
*891 FILLER_0_8_68
*892 FILLER_0_8_80
*893 FILLER_0_9_122
*894 FILLER_0_9_128
*895 FILLER_0_9_157
*896 FILLER_0_9_165
*897 FILLER_0_9_169
*898 FILLER_0_9_3
*899 FILLER_0_9_54
*900 FILLER_0_9_57
*901 FILLER_0_9_65
*902 FILLER_0_9_7
*903 FILLER_0_9_85
*904 FILLER_0_9_91
*905 PHY_0
*906 PHY_1
*907 PHY_10
*908 PHY_11
*909 PHY_12
*910 PHY_13
*911 PHY_14
*912 PHY_15
*913 PHY_16
*914 PHY_17
*915 PHY_18
*916 PHY_19
*917 PHY_2
*918 PHY_20
*919 PHY_21
*920 PHY_22
*921 PHY_23
*922 PHY_24
*923 PHY_25
*924 PHY_26
*925 PHY_27
*926 PHY_28
*927 PHY_29
*928 PHY_3
*929 PHY_30
*930 PHY_31
*931 PHY_32
*932 PHY_33
*933 PHY_34
*934 PHY_35
*935 PHY_36
*936 PHY_37
*937 PHY_38
*938 PHY_39
*939 PHY_4
*940 PHY_40
*941 PHY_41
*942 PHY_42
*943 PHY_43
*944 PHY_44
*945 PHY_45
*946 PHY_46
*947 PHY_47
*948 PHY_48
*949 PHY_49
*950 PHY_5
*951 PHY_50
*952 PHY_51
*953 PHY_52
*954 PHY_53
*955 PHY_54
*956 PHY_55
*957 PHY_56
*958 PHY_57
*959 PHY_58
*960 PHY_59
*961 PHY_6
*962 PHY_60
*963 PHY_61
*964 PHY_62
*965 PHY_63
*966 PHY_64
*967 PHY_65
*968 PHY_7
*969 PHY_8
*970 PHY_9
*971 TAP_100
*972 TAP_101
*973 TAP_102
*974 TAP_103
*975 TAP_104
*976 TAP_105
*977 TAP_106
*978 TAP_107
*979 TAP_108
*980 TAP_109
*981 TAP_110
*982 TAP_111
*983 TAP_112
*984 TAP_113
*985 TAP_114
*986 TAP_115
*987 TAP_116
*988 TAP_117
*989 TAP_118
*990 TAP_119
*991 TAP_120
*992 TAP_121
*993 TAP_122
*994 TAP_123
*995 TAP_124
*996 TAP_125
*997 TAP_126
*998 TAP_127
*999 TAP_128
*1000 TAP_129
*1001 TAP_130
*1002 TAP_131
*1003 TAP_132
*1004 TAP_133
*1005 TAP_134
*1006 TAP_135
*1007 TAP_136
*1008 TAP_137
*1009 TAP_138
*1010 TAP_139
*1011 TAP_140
*1012 TAP_141
*1013 TAP_142
*1014 TAP_143
*1015 TAP_144
*1016 TAP_145
*1017 TAP_146
*1018 TAP_147
*1019 TAP_148
*1020 TAP_149
*1021 TAP_150
*1022 TAP_151
*1023 TAP_152
*1024 TAP_153
*1025 TAP_154
*1026 TAP_155
*1027 TAP_156
*1028 TAP_157
*1029 TAP_158
*1030 TAP_159
*1031 TAP_160
*1032 TAP_161
*1033 TAP_162
*1034 TAP_163
*1035 TAP_164
*1036 TAP_165
*1037 TAP_166
*1038 TAP_167
*1039 TAP_168
*1040 TAP_169
*1041 TAP_170
*1042 TAP_66
*1043 TAP_67
*1044 TAP_68
*1045 TAP_69
*1046 TAP_70
*1047 TAP_71
*1048 TAP_72
*1049 TAP_73
*1050 TAP_74
*1051 TAP_75
*1052 TAP_76
*1053 TAP_77
*1054 TAP_78
*1055 TAP_79
*1056 TAP_80
*1057 TAP_81
*1058 TAP_82
*1059 TAP_83
*1060 TAP_84
*1061 TAP_85
*1062 TAP_86
*1063 TAP_87
*1064 TAP_88
*1065 TAP_89
*1066 TAP_90
*1067 TAP_91
*1068 TAP_92
*1069 TAP_93
*1070 TAP_94
*1071 TAP_95
*1072 TAP_96
*1073 TAP_97
*1074 TAP_98
*1075 TAP_99
*1076 _211_
*1077 _212_
*1078 _213_
*1079 _214_
*1080 _215_
*1081 _216_
*1082 _217_
*1083 _218_
*1084 _219_
*1085 _220_
*1086 _221_
*1087 _222_
*1088 _223_
*1089 _224_
*1090 _225_
*1091 _226_
*1092 _227_
*1093 _228_
*1094 _229_
*1095 _230_
*1096 _231_
*1097 _232_
*1098 _233_
*1099 _234_
*1100 _235_
*1101 _236_
*1102 _237_
*1103 _238_
*1104 _239_
*1105 _240_
*1106 _241_
*1107 _242_
*1108 _243_
*1109 _244_
*1110 _245_
*1111 _246_
*1112 _247_
*1113 _248_
*1114 _249_
*1115 _250_
*1116 _251_
*1117 _252_
*1118 _253_
*1119 _254_
*1120 _255_
*1121 _256_
*1122 _257_
*1123 _258_
*1124 _259_
*1125 _260_
*1126 _261_
*1127 _262_
*1128 _263_
*1129 _264_
*1130 _265_
*1131 _266_
*1132 _267_
*1133 _268_
*1134 _269_
*1135 _270_
*1136 _271_
*1137 _272_
*1138 _273_
*1139 _274_
*1140 _275_
*1141 _276_
*1142 _277_
*1143 _278_
*1144 _279_
*1145 _280_
*1146 _281_
*1147 _282_
*1148 _283_
*1149 _284_
*1150 _285_
*1151 _286_
*1152 _287_
*1153 _288_
*1154 _289_
*1155 _290_
*1156 _291_
*1157 _292_
*1158 _293_
*1159 _294_
*1160 _295_
*1161 _296_
*1162 _297_
*1163 _298_
*1164 _299_
*1165 _300_
*1166 _301_
*1167 _302_
*1168 _303_
*1169 _304_
*1170 _305_
*1171 _306_
*1172 _307_
*1173 _308_
*1174 _309_
*1175 _310_
*1176 _311_
*1177 _312_
*1178 _313_
*1179 _314_
*1180 _315_
*1181 _316_
*1182 _317_
*1183 _318_
*1184 _319_
*1185 _320_
*1186 _321_
*1187 _322_
*1188 _323_
*1189 _324_
*1190 _325_
*1191 _326_
*1192 _327_
*1193 _328_
*1194 _329_
*1195 _330_
*1196 _331_
*1197 _332_
*1198 _333_
*1199 _334_
*1200 _335_
*1201 _336_
*1202 _337_
*1203 _338_
*1204 _339_
*1205 _340_
*1206 _341_
*1207 _342_
*1208 _343_
*1209 _344_
*1210 _345_
*1211 _346_
*1212 _347_
*1213 _348_
*1214 _349_
*1215 _350_
*1216 _351_
*1217 _352_
*1218 _353_
*1219 _354_
*1220 _355_
*1221 _356_
*1222 _357_
*1223 _358_
*1224 _359_
*1225 _360_
*1226 _361_
*1227 _362_
*1228 _363_
*1229 _364_
*1230 _365_
*1231 _366_
*1232 _367_
*1233 _368_
*1234 _369_
*1235 _370_
*1236 _371_
*1237 _372_
*1238 _373_
*1239 _374_
*1240 _375_
*1241 _376_
*1242 _377_
*1243 _378_
*1244 _379_
*1245 _380_
*1246 _381_
*1247 _382_
*1248 _383_
*1249 _384_
*1250 _385_
*1251 _386_
*1252 _387_
*1253 _388_
*1254 _389_
*1255 _390_
*1256 _391_
*1257 _392_
*1258 _393_
*1259 _394_
*1260 _395_
*1261 _396_
*1262 _397_
*1263 _398_
*1264 _399_
*1265 _400_
*1266 _401_
*1267 _402_
*1268 _403_
*1269 _404_
*1270 _405_
*1271 _406_
*1272 _407_
*1273 _408_
*1274 _409_
*1275 _410_
*1276 _411_
*1277 _412_
*1278 _413_
*1279 _414_
*1280 _415_
*1281 _416_
*1282 _417_
*1283 _418_
*1284 _419_
*1285 _420_
*1286 _421_
*1287 _422_
*1288 _423_
*1289 _424_
*1290 _425_
*1291 _426_
*1292 _427_
*1293 _428_
*1294 _429_
*1295 _430_
*1296 _431_
*1297 _432_
*1298 _433_
*1299 _434_
*1300 _435_
*1301 _436_
*1302 _437_
*1303 _438_
*1304 _439_
*1305 _440_
*1306 _441_
*1307 _442_
*1308 _443_
*1309 _444_
*1310 _445_
*1311 _446_
*1312 _447_
*1313 _448_
*1314 _449_
*1315 _450_
*1316 _451_
*1317 _452_
*1318 _453_
*1319 _454_
*1320 _455_
*1321 _456_
*1322 _457_
*1323 _458_
*1324 _459_
*1325 _460_
*1326 _461_
*1327 _462_
*1328 _463_
*1329 _464_
*1330 _465_
*1331 _466_
*1332 _467_
*1333 _468_
*1334 _469_
*1335 _470_
*1336 _471_
*1337 _472_
*1338 _473_
*1339 _474_
*1340 _475_
*1341 _476_
*1342 _477_
*1343 _478_
*1344 _479_
*1345 _480_
*1346 _481_
*1347 _482_
*1348 _483_
*1349 _484_
*1350 _485_
*1351 _486_
*1352 clkbuf_0_clk
*1353 clkbuf_3_0__f_clk
*1354 clkbuf_3_1__f_clk
*1355 clkbuf_3_2__f_clk
*1356 clkbuf_3_3__f_clk
*1357 clkbuf_3_4__f_clk
*1358 clkbuf_3_5__f_clk
*1359 clkbuf_3_6__f_clk
*1360 clkbuf_3_7__f_clk
*1361 hold1
*1362 hold10
*1363 hold11
*1364 hold12
*1365 hold13
*1366 hold14
*1367 hold15
*1368 hold16
*1369 hold17
*1370 hold18
*1371 hold19
*1372 hold2
*1373 hold20
*1374 hold21
*1375 hold22
*1376 hold23
*1377 hold24
*1378 hold25
*1379 hold26
*1380 hold27
*1381 hold28
*1382 hold29
*1383 hold3
*1384 hold30
*1385 hold31
*1386 hold32
*1387 hold33
*1388 hold34
*1389 hold35
*1390 hold36
*1391 hold37
*1392 hold38
*1393 hold39
*1394 hold4
*1395 hold40
*1396 hold41
*1397 hold42
*1398 hold43
*1399 hold44
*1400 hold45
*1401 hold46
*1402 hold47
*1403 hold5
*1404 hold6
*1405 hold7
*1406 hold8
*1407 hold9
*1408 input1
*1409 input10
*1410 input11
*1411 input12
*1412 input13
*1413 input14
*1414 input15
*1415 input16
*1416 input17
*1417 input2
*1418 input3
*1419 input4
*1420 input5
*1421 input6
*1422 input7
*1423 input8
*1424 input9
*1425 max_cap25
*1426 output18
*1427 output19
*1428 output20
*1429 output21
*1430 output22
*1431 output23
*1432 output24
*1433 wire26

*PORTS
clk I
i_valid I
i_value0[0] I
i_value0[1] I
i_value0[2] I
i_value1[0] I
i_value1[1] I
i_value1[2] I
i_value2[0] I
i_value2[1] I
i_value2[2] I
i_value3[0] I
i_value3[1] I
i_value3[2] I
i_value4[0] I
i_value4[1] I
i_value4[2] I
o_bucket[0] O
o_bucket[1] O
o_bucket[2] O
o_index[0] O
o_index[1] O
o_index[2] O
o_valid O
rst_n I

*D_NET *3 0.0136013
*CONN
*P clk I
*I *1352:A I *D sky130_fd_sc_hd__clkbuf_16
*CAP
1 clk 0.00679574
2 *1352:A 0
3 *3:17 0.00679574
4 *3:17 *27:13 0
5 *3:17 *239:18 0
6 *3:17 *364:8 9.85586e-06
*RES
1 clk *3:17 41.2517 
2 *3:17 *1352:A 38 
*END

*D_NET *4 0.000973429
*CONN
*P i_valid I
*I *1408:A I *D sky130_fd_sc_hd__clkbuf_1
*CAP
1 i_valid 0.000486714
2 *1408:A 0
3 *4:13 0.000486714
4 *4:13 *1417:A 0
5 *4:13 *27:13 0
6 *4:13 *34:8 0
*RES
1 i_valid *4:13 31.4589 
2 *4:13 *1408:A 23 
*END

*D_NET *5 0.000734095
*CONN
*P i_value0[0] I
*I *1417:A I *D sky130_fd_sc_hd__clkbuf_1
*CAP
1 i_value0[0] 0.000367047
2 *1417:A 0.000367047
3 *4:13 *1417:A 0
*RES
1 i_value0[0] *1417:A 48.1491 
*END

*D_NET *6 0.000502457
*CONN
*P i_value0[1] I
*I *1418:A I *D sky130_fd_sc_hd__buf_1
*CAP
1 i_value0[1] 0.000251229
2 *1418:A 0.000251229
*RES
1 i_value0[1] *1418:A 49.1767 
*END

*D_NET *7 0.000705124
*CONN
*P i_value0[2] I
*I *1419:A I *D sky130_fd_sc_hd__buf_1
*CAP
1 i_value0[2] 0.000352562
2 *1419:A 0
3 *7:13 0.000352562
4 *7:13 *8:13 0
5 *7:13 *240:27 0
6 *7:13 *281:8 0
*RES
1 i_value0[2] *7:13 28.2896 
2 *7:13 *1419:A 23 
*END

*D_NET *8 0.000683207
*CONN
*P i_value1[0] I
*I *1420:A I *D sky130_fd_sc_hd__clkbuf_1
*CAP
1 i_value1[0] 0.000341604
2 *1420:A 0
3 *8:13 0.000341604
4 *8:13 *1421:A 0
5 *7:13 *8:13 0
*RES
1 i_value1[0] *8:13 28.2896 
2 *8:13 *1420:A 23 
*END

*D_NET *9 0.000505106
*CONN
*P i_value1[1] I
*I *1421:A I *D sky130_fd_sc_hd__buf_1
*CAP
1 i_value1[1] 0.000252553
2 *1421:A 0.000252553
3 *8:13 *1421:A 0
*RES
1 i_value1[1] *1421:A 49.1767 
*END

*D_NET *10 0.000713477
*CONN
*P i_value1[2] I
*I *1422:A I *D sky130_fd_sc_hd__buf_1
*CAP
1 i_value1[2] 0.000356738
2 *1422:A 0.000356738
3 *1422:A *1423:A 0
*RES
1 i_value1[2] *1422:A 48.1491 
*END

*D_NET *11 0.000515012
*CONN
*P i_value2[0] I
*I *1423:A I *D sky130_fd_sc_hd__clkbuf_1
*CAP
1 i_value2[0] 0.000257506
2 *1423:A 0.000257506
3 *1423:A *12:13 0
4 *1422:A *1423:A 0
*RES
1 i_value2[0] *1423:A 49.1767 
*END

*D_NET *12 0.000685519
*CONN
*P i_value2[1] I
*I *1424:A I *D sky130_fd_sc_hd__buf_1
*CAP
1 i_value2[1] 0.00034276
2 *1424:A 0
3 *12:13 0.00034276
4 *12:13 *1409:A 0
5 *1423:A *12:13 0
*RES
1 i_value2[1] *12:13 28.2896 
2 *12:13 *1424:A 23 
*END

*D_NET *13 0.000505106
*CONN
*P i_value2[2] I
*I *1409:A I *D sky130_fd_sc_hd__buf_1
*CAP
1 i_value2[2] 0.000252553
2 *1409:A 0.000252553
3 *12:13 *1409:A 0
*RES
1 i_value2[2] *1409:A 49.1767 
*END

*D_NET *14 0.000709471
*CONN
*P i_value3[0] I
*I *1410:A I *D sky130_fd_sc_hd__clkbuf_1
*CAP
1 i_value3[0] 0.000354736
2 *1410:A 0.000354736
3 *1410:A *1411:A 0
*RES
1 i_value3[0] *1410:A 48.7264 
*END

*D_NET *15 0.00051617
*CONN
*P i_value3[1] I
*I *1411:A I *D sky130_fd_sc_hd__buf_1
*CAP
1 i_value3[1] 0.000258085
2 *1411:A 0.000258085
3 *1411:A *16:13 0
4 *1410:A *1411:A 0
*RES
1 i_value3[1] *1411:A 49.1767 
*END

*D_NET *16 0.000716441
*CONN
*P i_value3[2] I
*I *1412:A I *D sky130_fd_sc_hd__buf_1
*CAP
1 i_value3[2] 0.00035822
2 *1412:A 0
3 *16:13 0.00035822
4 *16:13 *242:85 0
5 *1411:A *16:13 0
*RES
1 i_value3[2] *16:13 28.2896 
2 *16:13 *1412:A 23 
*END

*D_NET *17 0.000708816
*CONN
*P i_value4[0] I
*I *1413:A I *D sky130_fd_sc_hd__clkbuf_1
*CAP
1 i_value4[0] 0.000347608
2 *1413:A 0
3 *17:13 0.000347608
4 *17:13 *1313:CLK 1.35999e-05
*RES
1 i_value4[0] *17:13 28.2896 
2 *17:13 *1413:A 23 
*END

*D_NET *18 0.000823449
*CONN
*P i_value4[1] I
*I *1414:A I *D sky130_fd_sc_hd__buf_1
*CAP
1 i_value4[1] 0.00031816
2 *1414:A 0
3 *18:13 0.00031816
4 *18:13 *19:15 0.000187129
5 *18:13 *255:8 0
*RES
1 i_value4[1] *18:13 28.2896 
2 *18:13 *1414:A 23 
*END

*D_NET *19 0.00111645
*CONN
*P i_value4[2] I
*I *1415:A I *D sky130_fd_sc_hd__buf_1
*CAP
1 i_value4[2] 0.000436307
2 *1415:A 0
3 *19:15 0.000436307
4 *19:15 *254:8 5.67058e-05
5 *18:13 *19:15 0.000187129
*RES
1 i_value4[2] *19:15 30.5298 
2 *19:15 *1415:A 23 
*END

*D_NET *20 0.00134303
*CONN
*P o_bucket[0] O
*I *1426:X O *D sky130_fd_sc_hd__clkbuf_4
*CAP
1 o_bucket[0] 0.000245061
2 *1426:X 0.000341003
3 *20:8 0.000586064
4 *20:8 *1426:A 0.00011726
5 *20:8 *257:10 5.36457e-05
6 *20:8 *284:8 0
*RES
1 *1426:X *20:8 45.3639 
2 *20:8 o_bucket[0] 8.9296 
*END

*D_NET *21 0.00065938
*CONN
*P o_bucket[1] O
*I *1427:X O *D sky130_fd_sc_hd__buf_2
*CAP
1 o_bucket[1] 0.000317763
2 *1427:X 0.000317763
3 o_bucket[1] *1427:A 2.38535e-05
*RES
1 *1427:X o_bucket[1] 47.6887 
*END

*D_NET *22 0.000807703
*CONN
*P o_bucket[2] O
*I *1428:X O *D sky130_fd_sc_hd__clkbuf_4
*CAP
1 o_bucket[2] 0.00035086
2 *1428:X 0.00035086
3 o_bucket[2] *1428:A 1.80959e-05
4 o_bucket[2] *264:10 8.78864e-05
*RES
1 *1428:X o_bucket[2] 48.7451 
*END

*D_NET *23 0.00101556
*CONN
*P o_index[0] O
*I *1429:X O *D sky130_fd_sc_hd__clkbuf_4
*CAP
1 o_index[0] 0.000219857
2 *1429:X 0.000287925
3 *23:10 0.000507782
*RES
1 *1429:X *23:10 43.1682 
2 *23:10 o_index[0] 8.84373 
*END

*D_NET *24 0.000745137
*CONN
*P o_index[1] O
*I *1430:X O *D sky130_fd_sc_hd__buf_2
*CAP
1 o_index[1] 0.000341051
2 *1430:X 0.000341051
3 o_index[1] *261:10 6.30342e-05
*RES
1 *1430:X o_index[1] 48.7451 
*END

*D_NET *25 0.00132627
*CONN
*P o_index[2] O
*I *1431:X O *D sky130_fd_sc_hd__clkbuf_4
*CAP
1 o_index[2] 0.000578532
2 *1431:X 0.000578532
3 o_index[2] *256:357 0.000130212
4 o_index[2] *297:8 3.89972e-05
*RES
1 *1431:X o_index[2] 49.432 
*END

*D_NET *26 0.0010672
*CONN
*P o_valid O
*I *1432:X O *D sky130_fd_sc_hd__clkbuf_4
*CAP
1 o_valid 0.000276545
2 *1432:X 0.000257056
3 *26:8 0.000533602
*RES
1 *1432:X *26:8 43.2511 
2 *26:8 o_valid 9.01547 
*END

*D_NET *27 0.000705531
*CONN
*P rst_n I
*I *1416:A I *D sky130_fd_sc_hd__buf_12
*CAP
1 rst_n 0.000352765
2 *1416:A 0
3 *27:13 0.000352765
4 *3:17 *27:13 0
5 *4:13 *27:13 0
*RES
1 rst_n *27:13 28.2896 
2 *27:13 *1416:A 23 
*END

*D_NET *28 0.00201775
*CONN
*I *1287:D I *D sky130_fd_sc_hd__dfrtp_1
*I *1286:A I *D sky130_fd_sc_hd__nor2_1
*I *1079:X O *D sky130_fd_sc_hd__clkbuf_1
*CAP
1 *1287:D 0.000280135
2 *1286:A 0
3 *1079:X 0
4 *28:16 0.000337897
5 *28:4 0.000618032
6 *1287:D *94:25 6.63793e-06
7 *1287:D *240:90 9.58908e-05
8 *1287:D *326:20 0.000141337
9 *28:16 *1286:B 5.56356e-05
10 *28:16 *92:10 9.92345e-05
11 *28:16 *238:8 0.000326053
12 *28:16 *240:90 5.68958e-05
*RES
1 *1079:X *28:4 23 
2 *28:4 *28:16 37.54 
3 *28:16 *1286:A 23 
4 *28:4 *1287:D 27.3345 
*END

*D_NET *29 0.000590199
*CONN
*I *1343:D I *D sky130_fd_sc_hd__dfrtp_1
*I *1125:Y O *D sky130_fd_sc_hd__o21ai_1
*CAP
1 *1343:D 8.61882e-05
2 *1125:Y 0.000144717
3 *29:10 0.000230905
4 *1343:D *1343:CLK 1.42726e-05
5 *1343:D *116:29 1.11466e-05
6 *29:10 *1125:A2 0.000102971
*RES
1 *1125:Y *29:10 40.2993 
2 *29:10 *1343:D 39.1652 
*END

*D_NET *30 0.0101356
*CONN
*I *1336:D I *D sky130_fd_sc_hd__dfrtp_1
*I *1245:S I *D sky130_fd_sc_hd__mux2_1
*I *1243:S I *D sky130_fd_sc_hd__mux2_1
*I *1241:S I *D sky130_fd_sc_hd__mux2_1
*I *1254:S I *D sky130_fd_sc_hd__mux2_1
*I *1252:S I *D sky130_fd_sc_hd__mux2_1
*I *1249:S I *D sky130_fd_sc_hd__mux2_1
*I *1113:X O *D sky130_fd_sc_hd__buf_2
*CAP
1 *1336:D 0.000328562
2 *1245:S 0.000226261
3 *1243:S 0.000242845
4 *1241:S 0.000247799
5 *1254:S 6.24218e-05
6 *1252:S 0.000193
7 *1249:S 2.13695e-05
8 *1113:X 0.000139495
9 *30:71 0.000644433
10 *30:58 0.00113594
11 *30:20 0.000618463
12 *30:12 0.000907395
13 *30:10 0.000907489
14 *30:8 0.00116179
15 *1241:S *1241:A0 3.32626e-05
16 *1243:S *1243:A0 5.08856e-05
17 *1243:S *99:141 5.50106e-05
18 *1243:S *211:10 0.000140259
19 *1245:S *1245:A1 7.59794e-05
20 *1249:S *309:6 5.56279e-05
21 *1252:S *216:20 5.50049e-05
22 *1252:S *309:6 0.000139446
23 *1254:S *1254:A0 2.50118e-05
24 *1254:S *130:40 0.000100486
25 *1336:D *1336:CLK 0.000101432
26 *1336:D *1336:RESET_B 7.153e-05
27 *1336:D *212:10 0.000108681
28 *1336:D *247:68 4.98089e-05
29 *1336:D *256:404 4.52078e-05
30 *1336:D *286:10 0.000150878
31 *30:10 *76:10 0.000141888
32 *30:10 *97:14 0.000334225
33 *30:10 *126:72 0
34 *30:10 *210:8 8.18491e-05
35 *30:10 *256:353 0
36 *30:10 *256:355 0
37 *30:12 *126:72 0
38 *30:12 *245:52 5.43858e-05
39 *30:12 *256:355 0
40 *30:20 *80:8 0.00014411
41 *30:20 *216:20 0
42 *30:20 *217:10 9.37532e-05
43 *30:20 *245:34 6.84968e-05
44 *30:20 *245:52 0.000149162
45 *30:58 *97:14 0.000283633
46 *30:58 *211:10 0.000108681
47 *30:58 *247:68 2.13217e-05
48 *30:58 *256:335 0.000194151
49 *30:58 *256:339 0.00011575
50 *30:58 *256:394 9.82196e-05
51 *30:58 *256:404 3.46241e-05
52 *30:58 *355:10 0
53 *30:71 *247:68 5.16956e-05
54 *30:71 *256:404 6.38844e-05
*RES
1 *1113:X *30:8 39.5743 
2 *30:8 *30:10 6.83571 
3 *30:10 *30:12 8.24429 
4 *30:12 *30:20 24.715 
5 *30:20 *1249:S 23.6214 
6 *30:20 *1252:S 27.4743 
7 *30:12 *1254:S 39.5743 
8 *30:10 *1241:S 42.4329 
9 *30:8 *30:58 18.4564 
10 *30:58 *1243:S 43.2821 
11 *30:58 *30:71 2.61 
12 *30:71 *1245:S 41.3764 
13 *30:71 *1336:D 46.9486 
*END

*D_NET *31 0.000326558
*CONN
*I *1288:D I *D sky130_fd_sc_hd__dfrtp_1
*I *1133:X O *D sky130_fd_sc_hd__clkbuf_1
*CAP
1 *1288:D 0.000116531
2 *1133:X 0.000116531
3 *1288:D *1288:CLK 7.87243e-05
4 *1288:D *1288:RESET_B 1.47709e-05
*RES
1 *1133:X *1288:D 48.5479 
*END

*D_NET *32 0.00202808
*CONN
*I *1289:D I *D sky130_fd_sc_hd__dfrtp_1
*I *1135:X O *D sky130_fd_sc_hd__clkbuf_1
*CAP
1 *1289:D 4.4294e-05
2 *1135:X 0.000512779
3 *32:10 0.000557073
4 *1289:D *1289:CLK 6.17437e-06
5 *32:10 *1132:A0 0.000139653
6 *32:10 *1288:CLK 0.000158796
7 *32:10 *1289:CLK 0.000158796
8 *32:10 *145:79 0
9 *32:10 *147:8 0.000377111
10 *32:10 *305:26 1.35764e-05
11 *32:10 *325:101 5.98247e-05
*RES
1 *1135:X *32:10 48.875 
2 *32:10 *1289:D 38.6214 
*END

*D_NET *33 0.00117087
*CONN
*I *1290:D I *D sky130_fd_sc_hd__dfrtp_1
*I *1137:X O *D sky130_fd_sc_hd__clkbuf_1
*CAP
1 *1290:D 0.00032151
2 *1137:X 0.000138187
3 *33:8 0.000459697
4 *1290:D *1290:CLK 1.84831e-05
5 *1290:D *243:112 0.000125182
6 *33:8 *148:8 9.77167e-05
7 *33:8 *299:18 1.0092e-05
*RES
1 *1137:X *33:8 40.9621 
2 *33:8 *1290:D 42.93 
*END

*D_NET *34 0.00060989
*CONN
*I *1291:D I *D sky130_fd_sc_hd__dfrtp_1
*I *1145:X O *D sky130_fd_sc_hd__clkbuf_1
*CAP
1 *1291:D 3.02401e-05
2 *1145:X 0.000217434
3 *34:8 0.000247674
4 *1291:D *1291:CLK 3.22879e-05
5 *34:8 *155:10 4.11274e-05
6 *34:8 *248:8 4.11274e-05
7 *34:8 *256:23 0
8 *4:13 *34:8 0
*RES
1 *1145:X *34:8 42.3707 
2 *34:8 *1291:D 38.6214 
*END

*D_NET *35 0.000378852
*CONN
*I *1292:D I *D sky130_fd_sc_hd__dfrtp_1
*I *1147:X O *D sky130_fd_sc_hd__clkbuf_1
*CAP
1 *1292:D 0.000132964
2 *1147:X 0.000132964
3 *1292:D *1147:A 1.24376e-05
4 *1292:D *1292:RESET_B 0.000100486
*RES
1 *1147:X *1292:D 48.5479 
*END

*D_NET *36 0.000408292
*CONN
*I *1293:D I *D sky130_fd_sc_hd__dfrtp_1
*I *1148:X O *D sky130_fd_sc_hd__a21o_1
*CAP
1 *1293:D 8.66095e-05
2 *1148:X 6.55146e-05
3 *36:8 0.000152124
4 *1293:D *1293:CLK 9.04105e-06
5 *1293:D *240:14 5.41385e-05
6 *36:8 *240:27 4.08641e-05
7 *36:8 *281:27 0
*RES
1 *1148:X *36:8 39.2014 
2 *36:8 *1293:D 39.1652 
*END

*D_NET *37 0.000318594
*CONN
*I *1294:D I *D sky130_fd_sc_hd__dfrtp_1
*I *1156:X O *D sky130_fd_sc_hd__clkbuf_1
*CAP
1 *1294:D 3.78039e-05
2 *1156:X 8.62996e-05
3 *37:8 0.000124104
4 *37:8 *163:10 7.03869e-05
*RES
1 *1156:X *37:8 39.9057 
2 *37:8 *1294:D 38.6214 
*END

*D_NET *38 0.00028388
*CONN
*I *1295:D I *D sky130_fd_sc_hd__dfrtp_1
*I *1158:X O *D sky130_fd_sc_hd__clkbuf_1
*CAP
1 *1295:D 0
2 *1158:X 0.000139359
3 *38:10 0.000139359
4 *38:10 *303:6 5.1614e-06
*RES
1 *1158:X *38:10 40.175 
2 *38:10 *1295:D 38 
*END

*D_NET *39 0.000375207
*CONN
*I *1296:D I *D sky130_fd_sc_hd__dfrtp_1
*I *1159:X O *D sky130_fd_sc_hd__a21o_1
*CAP
1 *1296:D 0
2 *1159:X 0.000130909
3 *39:10 0.000130909
4 *39:10 *239:87 0.000113389
*RES
1 *1159:X *39:10 40.175 
2 *39:10 *1296:D 38 
*END

*D_NET *40 0.000576784
*CONN
*I *1297:D I *D sky130_fd_sc_hd__dfrtp_1
*I *1161:X O *D sky130_fd_sc_hd__clkbuf_1
*CAP
1 *1297:D 0.000132701
2 *1161:X 4.11681e-05
3 *40:8 0.000173869
4 *1297:D *1298:CLK 5.20072e-05
5 *40:8 *1297:RESET_B 2.46922e-05
6 *40:8 *256:722 6.38268e-05
7 *40:8 *324:10 8.85189e-05
*RES
1 *1161:X *40:8 39.2014 
2 *40:8 *1297:D 40.5479 
*END

*D_NET *41 0.00082928
*CONN
*I *1298:D I *D sky130_fd_sc_hd__dfrtp_1
*I *1163:X O *D sky130_fd_sc_hd__clkbuf_1
*CAP
1 *1298:D 1.62888e-05
2 *1163:X 0.000348577
3 *41:10 0.000364866
4 *1298:D *256:737 5.56356e-05
5 *1298:D *321:8 1.41244e-05
6 *41:10 *1160:S 0
7 *41:10 *1162:A0 9.03964e-06
8 *41:10 *1163:A 2.07484e-05
*RES
1 *1163:X *41:10 43.4686 
2 *41:10 *1298:D 38.6214 
*END

*D_NET *42 0.000293393
*CONN
*I *1299:D I *D sky130_fd_sc_hd__dfrtp_1
*I *1165:X O *D sky130_fd_sc_hd__clkbuf_1
*CAP
1 *1299:D 0.000136171
2 *1165:X 0.000136171
3 *1299:D *1299:CLK 2.10502e-05
*RES
1 *1165:X *1299:D 48.5479 
*END

*D_NET *43 0.000363756
*CONN
*I *1300:D I *D sky130_fd_sc_hd__dfrtp_1
*I *1173:X O *D sky130_fd_sc_hd__clkbuf_1
*CAP
1 *1300:D 0
2 *1173:X 9.59107e-05
3 *43:10 9.59107e-05
4 *43:10 *174:12 5.56203e-05
5 *43:10 *319:8 0.000116314
*RES
1 *1173:X *43:10 40.175 
2 *43:10 *1300:D 38 
*END

*D_NET *44 0.000227554
*CONN
*I *1301:D I *D sky130_fd_sc_hd__dfrtp_1
*I *1175:X O *D sky130_fd_sc_hd__clkbuf_1
*CAP
1 *1301:D 0
2 *1175:X 0.000113777
3 *44:8 0.000113777
4 *44:8 *256:86 0
*RES
1 *1175:X *44:8 39.9057 
2 *44:8 *1301:D 38 
*END

*D_NET *45 0.000717698
*CONN
*I *1302:D I *D sky130_fd_sc_hd__dfrtp_1
*I *1176:X O *D sky130_fd_sc_hd__a21o_1
*CAP
1 *1302:D 2.15027e-05
2 *1176:X 0.000200584
3 *45:8 0.000222086
4 *1302:D *249:12 5.58003e-05
5 *45:8 *1306:RESET_B 4.96024e-05
6 *45:8 *93:139 2.48696e-05
7 *45:8 *242:47 8.81427e-05
8 *45:8 *267:10 5.511e-05
*RES
1 *1176:X *45:8 42.3707 
2 *45:8 *1302:D 38.6214 
*END

*D_NET *46 0.000764152
*CONN
*I *1303:D I *D sky130_fd_sc_hd__dfrtp_1
*I *1178:X O *D sky130_fd_sc_hd__clkbuf_1
*CAP
1 *1303:D 0.000171174
2 *1178:X 4.78877e-05
3 *46:8 0.000219062
4 *1303:D *1303:CLK 4.42603e-05
5 *46:8 *1303:RESET_B 0.000140884
6 *46:8 *325:61 0.000140884
*RES
1 *1178:X *46:8 39.9057 
2 *46:8 *1303:D 40.5271 
*END

*D_NET *47 0.00042326
*CONN
*I *1304:D I *D sky130_fd_sc_hd__dfrtp_1
*I *1180:X O *D sky130_fd_sc_hd__clkbuf_1
*CAP
1 *1304:D 0
2 *1180:X 0.000161896
3 *47:10 0.000161896
4 *47:10 *239:87 1.31888e-05
5 *47:10 *256:621 8.62783e-05
6 *47:10 *291:12 0
*RES
1 *1180:X *47:10 40.6514 
2 *47:10 *1304:D 38 
*END

*D_NET *48 0.00103382
*CONN
*I *1305:D I *D sky130_fd_sc_hd__dfrtp_1
*I *1182:X O *D sky130_fd_sc_hd__clkbuf_1
*CAP
1 *1305:D 3.78039e-05
2 *1182:X 0.000242656
3 *48:10 0.00028046
4 *48:10 *324:68 0.000346225
5 *48:10 *325:46 7.70494e-05
6 *48:10 *331:10 4.96264e-05
*RES
1 *1182:X *48:10 43.3443 
2 *48:10 *1305:D 38.6214 
*END

*D_NET *49 0.000290352
*CONN
*I *1306:D I *D sky130_fd_sc_hd__dfrtp_1
*I *1190:X O *D sky130_fd_sc_hd__clkbuf_1
*CAP
1 *1306:D 0
2 *1190:X 0.000134651
3 *49:10 0.000134651
4 *49:10 *249:12 2.10502e-05
*RES
1 *1190:X *49:10 40.175 
2 *49:10 *1306:D 38 
*END

*D_NET *50 0.000288527
*CONN
*I *1307:D I *D sky130_fd_sc_hd__dfrtp_1
*I *1192:X O *D sky130_fd_sc_hd__clkbuf_1
*CAP
1 *1307:D 4.3992e-05
2 *1192:X 6.19464e-05
3 *50:8 0.000105938
4 *1307:D *242:81 3.57857e-05
5 *50:8 *186:10 4.08641e-05
6 *50:8 *242:85 0
*RES
1 *1192:X *50:8 39.2014 
2 *50:8 *1307:D 38.6888 
*END

*D_NET *51 0.000721245
*CONN
*I *1308:D I *D sky130_fd_sc_hd__dfrtp_1
*I *1193:X O *D sky130_fd_sc_hd__a21o_1
*CAP
1 *1308:D 6.83746e-05
2 *1193:X 0.000231484
3 *51:10 0.000299859
4 *1308:D *242:79 4.9939e-05
5 *51:10 *1193:A1 8.91468e-07
6 *51:10 *1193:B1 3.23186e-05
7 *51:10 *1312:CLK 3.83778e-05
8 *51:10 *252:12 0
*RES
1 *1193:X *51:10 41.2521 
2 *51:10 *1308:D 38.9995 
*END

*D_NET *52 0.000952505
*CONN
*I *1309:D I *D sky130_fd_sc_hd__dfrtp_1
*I *1195:X O *D sky130_fd_sc_hd__clkbuf_1
*CAP
1 *1309:D 0.000144096
2 *1195:X 0.000276332
3 *52:10 0.000420429
4 *52:10 *93:120 0
5 *52:10 *240:57 0.000111648
*RES
1 *1195:X *52:10 42.0807 
2 *52:10 *1309:D 40.0507 
*END

*D_NET *53 0.000372494
*CONN
*I *1310:D I *D sky130_fd_sc_hd__dfrtp_1
*I *1197:X O *D sky130_fd_sc_hd__clkbuf_1
*CAP
1 *1310:D 0.000132972
2 *1197:X 0.000132972
3 *1310:D *1197:A 0.00010655
*RES
1 *1197:X *1310:D 49.0243 
*END

*D_NET *54 0.000317261
*CONN
*I *1311:D I *D sky130_fd_sc_hd__dfrtp_1
*I *1199:X O *D sky130_fd_sc_hd__clkbuf_1
*CAP
1 *1311:D 0.000117307
2 *1199:X 0.000117307
3 *1311:D *1311:CLK 8.26478e-05
*RES
1 *1199:X *1311:D 48.5479 
*END

*D_NET *55 0.000378866
*CONN
*I *1312:D I *D sky130_fd_sc_hd__dfrtp_1
*I *1201:X O *D sky130_fd_sc_hd__clkbuf_1
*CAP
1 *1312:D 0.000118397
2 *1201:X 0.000118397
3 *1312:D *1129:C1 3.79728e-05
4 *1312:D *1201:A 1.24376e-05
5 *1312:D *1312:CLK 2.31687e-05
6 *1312:D *141:24 6.84924e-05
*RES
1 *1201:X *1312:D 48.5479 
*END

*D_NET *56 0.000867234
*CONN
*I *1313:D I *D sky130_fd_sc_hd__dfrtp_1
*I *1203:X O *D sky130_fd_sc_hd__clkbuf_1
*CAP
1 *1313:D 0.000101479
2 *1203:X 0.000267666
3 *56:8 0.000369145
4 *1313:D *253:6 8.56042e-05
5 *56:8 *1126:A 0
6 *56:8 *57:8 0
7 *56:8 *191:10 4.334e-05
8 *56:8 *255:8 0
9 *56:8 *353:8 0
*RES
1 *1203:X *56:8 42.7229 
2 *56:8 *1313:D 40.5271 
*END

*D_NET *57 0.000595845
*CONN
*I *1314:D I *D sky130_fd_sc_hd__dfrtp_1
*I *1204:X O *D sky130_fd_sc_hd__a21o_1
*CAP
1 *1314:D 7.10335e-05
2 *1204:X 0.000226889
3 *57:8 0.000297923
4 *56:8 *57:8 0
*RES
1 *1204:X *57:8 42.0186 
2 *57:8 *1314:D 39.1186 
*END

*D_NET *58 0.000397515
*CONN
*I *1315:D I *D sky130_fd_sc_hd__dfrtp_1
*I *1206:X O *D sky130_fd_sc_hd__clkbuf_1
*CAP
1 *1315:D 0
2 *1206:X 0.000113782
3 *58:10 0.000113782
4 *58:10 *192:10 4.96024e-05
5 *58:10 *243:30 0.000110258
6 *58:10 *243:43 1.0092e-05
*RES
1 *1206:X *58:10 40.175 
2 *58:10 *1315:D 38 
*END

*D_NET *59 0.000896625
*CONN
*I *1316:D I *D sky130_fd_sc_hd__dfrtp_1
*I *1208:X O *D sky130_fd_sc_hd__clkbuf_1
*CAP
1 *1316:D 3.19786e-05
2 *1208:X 0.000305265
3 *59:10 0.000337244
4 *1316:D *1176:A2 2.86326e-05
5 *59:10 *1176:A2 8.36198e-05
6 *59:10 *193:10 5.42498e-05
7 *59:10 *267:10 5.56356e-05
*RES
1 *1208:X *59:10 42.9093 
2 *59:10 *1316:D 38.6214 
*END

*D_NET *60 0.000371673
*CONN
*I *1317:D I *D sky130_fd_sc_hd__dfrtp_1
*I *1210:X O *D sky130_fd_sc_hd__clkbuf_1
*CAP
1 *1317:D 0.000158767
2 *1210:X 0.000158767
3 *1317:D *301:12 5.41385e-05
*RES
1 *1210:X *1317:D 49.0243 
*END

*D_NET *61 0.000306904
*CONN
*I *1318:D I *D sky130_fd_sc_hd__dfrtp_1
*I *1212:X O *D sky130_fd_sc_hd__clkbuf_1
*CAP
1 *1318:D 8.42111e-05
2 *1212:X 8.42111e-05
3 *1318:D *126:233 0.000106277
4 *1318:D *246:68 3.22051e-05
*RES
1 *1212:X *1318:D 48.5479 
*END

*D_NET *62 0.000694053
*CONN
*I *1319:D I *D sky130_fd_sc_hd__dfrtp_1
*I *1214:X O *D sky130_fd_sc_hd__clkbuf_1
*CAP
1 *1319:D 0
2 *1214:X 0.000269478
3 *62:10 0.000269478
4 *62:10 *246:68 3.50862e-06
5 *62:10 *305:10 6.58399e-05
6 *62:10 *306:10 8.57485e-05
*RES
1 *1214:X *62:10 43.3443 
2 *62:10 *1319:D 38 
*END

*D_NET *63 0.00132156
*CONN
*I *1320:D I *D sky130_fd_sc_hd__dfrtp_1
*I *1216:X O *D sky130_fd_sc_hd__clkbuf_1
*CAP
1 *1320:D 0.000395094
2 *1216:X 0.000179679
3 *63:8 0.000574773
4 *1320:D *246:58 0.000172016
*RES
1 *1216:X *63:8 40.9621 
2 *63:8 *1320:D 43.8829 
*END

*D_NET *64 0.000286134
*CONN
*I *1321:D I *D sky130_fd_sc_hd__dfrtp_1
*I *1218:X O *D sky130_fd_sc_hd__clkbuf_1
*CAP
1 *1321:D 9.81107e-05
2 *1218:X 9.81107e-05
3 *1321:D *246:20 5.72888e-05
4 *1321:D *246:26 3.26241e-05
*RES
1 *1218:X *1321:D 48.5479 
*END

*D_NET *65 0.000668002
*CONN
*I *1322:D I *D sky130_fd_sc_hd__dfrtp_1
*I *1220:X O *D sky130_fd_sc_hd__clkbuf_1
*CAP
1 *1322:D 9.3591e-05
2 *1220:X 0.00014336
3 *65:10 0.000236951
4 *1322:D *304:18 5.22563e-05
5 *65:10 *243:62 8.29264e-05
6 *65:10 *325:101 3.6608e-05
7 *65:10 *342:10 2.231e-05
*RES
1 *1220:X *65:10 40.2993 
2 *65:10 *1322:D 39.1652 
*END

*D_NET *66 0.000979427
*CONN
*I *1323:D I *D sky130_fd_sc_hd__dfrtp_1
*I *1222:X O *D sky130_fd_sc_hd__clkbuf_1
*CAP
1 *1323:D 0.000391945
2 *1222:X 6.55146e-05
3 *66:8 0.00045746
4 *1323:D *301:25 2.36436e-05
5 *66:8 *256:280 4.08641e-05
*RES
1 *1222:X *66:8 39.2014 
2 *66:8 *1323:D 42.93 
*END

*D_NET *67 0.000616287
*CONN
*I *1324:D I *D sky130_fd_sc_hd__dfrtp_1
*I *1224:X O *D sky130_fd_sc_hd__clkbuf_1
*CAP
1 *1324:D 6.93185e-05
2 *1224:X 0.000110003
3 *67:8 0.000179321
4 *1324:D *1324:CLK 2.10502e-05
5 *1324:D *1324:RESET_B 0.000185873
6 *67:8 *126:169 5.07209e-05
7 *67:8 *293:12 0
*RES
1 *1224:X *67:8 39.5536 
2 *67:8 *1324:D 40.0507 
*END

*D_NET *68 0.000338478
*CONN
*I *1325:D I *D sky130_fd_sc_hd__dfrtp_1
*I *1226:X O *D sky130_fd_sc_hd__clkbuf_1
*CAP
1 *1325:D 5.58914e-05
2 *1226:X 5.58914e-05
3 *1325:D *1226:A 0.000126529
4 *1325:D *1325:CLK 3.22051e-05
5 *1325:D *256:234 6.79616e-05
*RES
1 *1226:X *1325:D 48.5479 
*END

*D_NET *69 0.000453497
*CONN
*I *1326:D I *D sky130_fd_sc_hd__dfrtp_1
*I *1228:X O *D sky130_fd_sc_hd__clkbuf_1
*CAP
1 *1326:D 0.000154129
2 *1228:X 0.000154129
3 *1326:D *1326:CLK 0.000145238
*RES
1 *1228:X *1326:D 49.5007 
*END

*D_NET *70 0.000237759
*CONN
*I *1327:D I *D sky130_fd_sc_hd__dfrtp_1
*I *1230:X O *D sky130_fd_sc_hd__clkbuf_1
*CAP
1 *1327:D 0
2 *1230:X 9.24881e-05
3 *70:8 9.24881e-05
4 *70:8 *204:8 5.27824e-05
*RES
1 *1230:X *70:8 39.5536 
2 *70:8 *1327:D 38 
*END

*D_NET *71 0.000555623
*CONN
*I *1328:D I *D sky130_fd_sc_hd__dfrtp_1
*I *1232:X O *D sky130_fd_sc_hd__clkbuf_1
*CAP
1 *1328:D 0.000116256
2 *1232:X 5.47508e-05
3 *71:8 0.000171006
4 *1328:D *1328:RESET_B 3.76165e-05
5 *1328:D *362:14 5.11621e-05
6 *71:8 *1327:RESET_B 7.58696e-05
7 *71:8 *256:673 1.12863e-05
8 *71:8 *362:14 3.76761e-05
*RES
1 *1232:X *71:8 39.2014 
2 *71:8 *1328:D 40.0714 
*END

*D_NET *72 0.00061358
*CONN
*I *1329:D I *D sky130_fd_sc_hd__dfrtp_1
*I *1234:X O *D sky130_fd_sc_hd__clkbuf_1
*CAP
1 *1329:D 0
2 *1234:X 0.000235813
3 *72:10 0.000235813
4 *72:10 *1332:CLK 0
5 *72:10 *1332:RESET_B 0
6 *72:10 *244:50 0
7 *72:10 *295:16 0.000141954
*RES
1 *1234:X *72:10 41.8321 
2 *72:10 *1329:D 38 
*END

*D_NET *73 0.000318656
*CONN
*I *1330:D I *D sky130_fd_sc_hd__dfrtp_1
*I *1236:X O *D sky130_fd_sc_hd__clkbuf_1
*CAP
1 *1330:D 0
2 *1236:X 0.000150887
3 *73:10 0.000150887
4 *73:10 *359:10 1.68817e-05
*RES
1 *1236:X *73:10 40.175 
2 *73:10 *1330:D 38 
*END

*D_NET *74 0.00126356
*CONN
*I *1331:D I *D sky130_fd_sc_hd__dfrtp_1
*I *1238:X O *D sky130_fd_sc_hd__clkbuf_1
*CAP
1 *1331:D 0
2 *1238:X 0.000233772
3 *74:10 0.000233772
4 *74:10 *1162:A0 5.82853e-05
5 *74:10 *1237:A1 0.000454145
6 *74:10 *1238:A 0.000204625
7 *74:10 *126:136 0
8 *74:10 *208:12 3.46216e-05
9 *74:10 *322:8 4.43367e-05
*RES
1 *1238:X *74:10 45.6436 
2 *74:10 *1331:D 38 
*END

*D_NET *75 0.000817857
*CONN
*I *1332:D I *D sky130_fd_sc_hd__dfrtp_1
*I *1240:X O *D sky130_fd_sc_hd__clkbuf_1
*CAP
1 *1332:D 0
2 *1240:X 0.000339185
3 *75:8 0.000339185
4 *75:8 *1240:A 5.79559e-05
5 *75:8 *1332:CLK 8.1531e-05
*RES
1 *1240:X *75:8 29.3593 
2 *75:8 *1332:D 23 
*END

*D_NET *76 0.000528563
*CONN
*I *1333:D I *D sky130_fd_sc_hd__dfrtp_1
*I *1242:X O *D sky130_fd_sc_hd__clkbuf_1
*CAP
1 *1333:D 4.63595e-05
2 *1242:X 0.000113027
3 *76:10 0.000159387
4 *76:10 *210:8 6.79006e-05
5 *30:10 *76:10 0.000141888
*RES
1 *1242:X *76:10 40.5271 
2 *76:10 *1333:D 38.6214 
*END

*D_NET *77 0.00049861
*CONN
*I *1334:D I *D sky130_fd_sc_hd__dfrtp_1
*I *1244:X O *D sky130_fd_sc_hd__clkbuf_1
*CAP
1 *1334:D 0.00017884
2 *1244:X 0.00017884
3 *1334:D *1244:A 0.000140931
*RES
1 *1244:X *1334:D 48.5479 
*END

*D_NET *78 0.000504803
*CONN
*I *1335:D I *D sky130_fd_sc_hd__dfrtp_1
*I *1246:X O *D sky130_fd_sc_hd__clkbuf_1
*CAP
1 *1335:D 0.0001821
2 *1246:X 0.0001821
3 *1335:D *1246:A 0.000140603
*RES
1 *1246:X *1335:D 48.5479 
*END

*D_NET *79 0.000309187
*CONN
*I *1337:D I *D sky130_fd_sc_hd__dfrtp_1
*I *1250:X O *D sky130_fd_sc_hd__clkbuf_1
*CAP
1 *1337:D 0.000138491
2 *1250:X 0.000138491
3 *1337:D *1337:CLK 3.22051e-05
*RES
1 *1250:X *1337:D 48.5479 
*END

*D_NET *80 0.000310114
*CONN
*I *1338:D I *D sky130_fd_sc_hd__dfrtp_1
*I *1253:X O *D sky130_fd_sc_hd__clkbuf_1
*CAP
1 *1338:D 0
2 *1253:X 4.65756e-05
3 *80:8 4.65756e-05
4 *80:8 *217:10 7.28526e-05
5 *30:20 *80:8 0.00014411
*RES
1 *1253:X *80:8 39.9057 
2 *80:8 *1338:D 38 
*END

*D_NET *81 0.000320581
*CONN
*I *1339:D I *D sky130_fd_sc_hd__dfrtp_1
*I *1255:X O *D sky130_fd_sc_hd__clkbuf_1
*CAP
1 *1339:D 0.000145624
2 *1255:X 0.000145624
3 *1339:D *245:69 2.93335e-05
*RES
1 *1255:X *1339:D 48.5479 
*END

*D_NET *82 0.000392634
*CONN
*I *1340:D I *D sky130_fd_sc_hd__dfrtp_4
*I *1260:X O *D sky130_fd_sc_hd__clkbuf_1
*CAP
1 *1340:D 0.000181646
2 *1260:X 0.000181646
3 *1340:D *1340:CLK 2.93431e-05
*RES
1 *1260:X *1340:D 48.5479 
*END

*D_NET *83 0.000290411
*CONN
*I *1341:D I *D sky130_fd_sc_hd__dfrtp_1
*I *1265:X O *D sky130_fd_sc_hd__o211a_1
*CAP
1 *1341:D 9.20668e-05
2 *1265:X 9.20668e-05
3 *1341:D *247:36 7.40718e-05
4 *1341:D *247:48 3.22051e-05
*RES
1 *1265:X *1341:D 48.0507 
*END

*D_NET *84 0.000401007
*CONN
*I *1342:D I *D sky130_fd_sc_hd__dfrtp_1
*I *1268:Y O *D sky130_fd_sc_hd__a21oi_1
*CAP
1 *1342:D 0.000168155
2 *1268:Y 0.000168155
3 *1342:D *247:48 3.53115e-05
4 *1342:D *256:315 2.93845e-05
*RES
1 *1268:Y *1342:D 49.1071 
*END

*D_NET *85 0.00132459
*CONN
*I *1344:D I *D sky130_fd_sc_hd__dfrtp_1
*I *1270:Y O *D sky130_fd_sc_hd__nand2_1
*CAP
1 *1344:D 0.000410954
2 *1270:Y 0.000225284
3 *85:8 0.000636239
4 *85:8 *1344:RESET_B 0
5 *85:8 *134:12 0
6 *85:8 *273:10 5.21127e-05
*RES
1 *1270:Y *85:8 42.0186 
2 *85:8 *1344:D 43.4479 
*END

*D_NET *86 0.000848272
*CONN
*I *1345:D I *D sky130_fd_sc_hd__dfrtp_1
*I *1272:Y O *D sky130_fd_sc_hd__nand2_1
*CAP
1 *1345:D 3.79374e-05
2 *1272:Y 0.000271508
3 *86:10 0.000309445
4 *86:10 *1249:A1 0.000167113
5 *86:10 *214:8 4.15198e-05
6 *86:10 *230:8 2.07484e-05
*RES
1 *1272:Y *86:10 43.2614 
2 *86:10 *1345:D 38.6214 
*END

*D_NET *87 0.000433628
*CONN
*I *1346:D I *D sky130_fd_sc_hd__dfrtp_1
*I *1275:X O *D sky130_fd_sc_hd__clkbuf_1
*CAP
1 *1346:D 0.000216814
2 *1275:X 0.000216814
*RES
1 *1275:X *1346:D 49.0243 
*END

*D_NET *88 0.00182794
*CONN
*I *1347:D I *D sky130_fd_sc_hd__dfrtp_1
*I *1278:X O *D sky130_fd_sc_hd__clkbuf_1
*CAP
1 *1347:D 6.32417e-05
2 *1278:X 0.000437953
3 *88:14 0.000501195
4 *1347:D *1347:RESET_B 4.08664e-05
5 *1347:D *124:6 1.23293e-05
6 *1347:D *124:34 2.04034e-05
7 *1347:D *256:451 0.000100061
8 *88:14 *1278:A 3.16665e-05
9 *88:14 *1425:A 0.000110733
10 *88:14 *126:48 0.000119224
11 *88:14 *131:16 0.00017976
12 *88:14 *233:10 0.000133658
13 *88:14 *234:8 3.76761e-05
14 *88:14 *256:459 3.30774e-05
15 *88:14 *355:48 6.09335e-06
*RES
1 *1278:X *88:14 46.1407 
2 *88:14 *1347:D 39.5743 
*END

*D_NET *89 0.000385074
*CONN
*I *1348:D I *D sky130_fd_sc_hd__dfrtp_1
*I *1281:X O *D sky130_fd_sc_hd__clkbuf_1
*CAP
1 *1348:D 0.000173835
2 *1281:X 0.000173835
3 *1348:D *1348:CLK 1.92253e-05
4 *1348:D *1348:RESET_B 1.81777e-05
*RES
1 *1281:X *1348:D 48.5479 
*END

*D_NET *90 0.000997198
*CONN
*I *1349:D I *D sky130_fd_sc_hd__dfrtp_4
*I *1282:X O *D sky130_fd_sc_hd__xor2_1
*CAP
1 *1349:D 0
2 *1282:X 0.000331503
3 *90:10 0.000331503
4 *90:10 *1349:CLK 6.63698e-05
5 *90:10 *1349:RESET_B 0
6 *90:10 *240:94 8.43721e-05
7 *90:10 *256:707 0
8 *90:10 *298:18 0.000183449
*RES
1 *1282:X *90:10 45.83 
2 *90:10 *1349:D 38 
*END

*D_NET *91 0.000514602
*CONN
*I *1350:D I *D sky130_fd_sc_hd__dfrtp_4
*I *1284:Y O *D sky130_fd_sc_hd__nor2_1
*CAP
1 *1350:D 0
2 *1284:Y 0.000152269
3 *91:10 0.000152269
4 *91:10 *1284:A 0.000113398
5 *91:10 *291:12 9.66668e-05
*RES
1 *1284:Y *91:10 40.6514 
2 *91:10 *1350:D 38 
*END

*D_NET *92 0.00112233
*CONN
*I *1351:D I *D sky130_fd_sc_hd__dfrtp_4
*I *1286:Y O *D sky130_fd_sc_hd__nor2_1
*CAP
1 *1351:D 0.000182393
2 *1286:Y 0.000206962
3 *92:10 0.000389355
4 *1351:D *1351:RESET_B 5.50106e-05
5 *92:10 *1286:B 2.02872e-05
6 *92:10 *1351:RESET_B 8.50457e-05
7 *92:10 *238:8 8.4047e-05
8 *28:16 *92:10 9.92345e-05
*RES
1 *1286:Y *92:10 41.2521 
2 *92:10 *1351:D 40.5479 
*END

*D_NET *93 0.023298
*CONN
*I *1159:A1 I *D sky130_fd_sc_hd__a21o_1
*I *1176:A1 I *D sky130_fd_sc_hd__a21o_1
*I *1193:A1 I *D sky130_fd_sc_hd__a21o_1
*I *1204:A2 I *D sky130_fd_sc_hd__a21o_1
*I *1131:C1 I *D sky130_fd_sc_hd__o221a_2
*I *1188:C1 I *D sky130_fd_sc_hd__o221a_2
*I *1171:C1 I *D sky130_fd_sc_hd__o221a_2
*I *1154:C1 I *D sky130_fd_sc_hd__o221a_2
*I *1148:A1 I *D sky130_fd_sc_hd__a21o_1
*I *1143:C1 I *D sky130_fd_sc_hd__o221a_2
*I *1077:A I *D sky130_fd_sc_hd__and3_1
*I *1283:A1 I *D sky130_fd_sc_hd__a21oi_1
*I *1282:A I *D sky130_fd_sc_hd__xor2_1
*I *1076:X O *D sky130_fd_sc_hd__buf_4
*CAP
1 *1159:A1 0
2 *1176:A1 4.3213e-05
3 *1193:A1 5.11924e-05
4 *1204:A2 0
5 *1131:C1 0
6 *1188:C1 3.23177e-05
7 *1171:C1 0.00013184
8 *1154:C1 0
9 *1148:A1 8.20792e-05
10 *1143:C1 3.66664e-05
11 *1077:A 0
12 *1283:A1 0
13 *1282:A 0
14 *1076:X 0.000159385
15 *93:218 0.000397169
16 *93:189 0.000609683
17 *93:168 0.00102936
18 *93:164 0.00104667
19 *93:147 0.00110656
20 *93:139 0.00105546
21 *93:120 0.00146551
22 *93:114 0.00156444
23 *93:95 0.000347397
24 *93:93 0.000727989
25 *93:66 0.00109306
26 *93:53 0.00070407
27 *93:40 0.000471151
28 *93:23 0.000756362
29 *93:10 0.000842791
30 *93:6 0.00110138
31 *1143:C1 *1142:A1 5.45644e-05
32 *1143:C1 *1143:A2 5.44438e-05
33 *1143:C1 *1143:B2 6.91972e-05
34 *1148:A1 *268:8 0.000203072
35 *1148:A1 *281:14 4.01721e-05
36 *1148:A1 *281:27 9.84794e-05
37 *1171:C1 *1171:B2 1.07531e-05
38 *1171:C1 *1172:S 5.3304e-05
39 *1171:C1 *1355:A 3.56063e-05
40 *1171:C1 *173:8 2.96003e-05
41 *1171:C1 *239:74 0.000100069
42 *1176:A1 *1316:CLK 1.24376e-05
43 *1188:C1 *1187:B1 0
44 *1188:C1 *183:8 1.37232e-05
45 *1188:C1 *184:12 1.14534e-05
46 *93:6 *155:10 5.70419e-05
47 *93:6 *256:23 5.12254e-05
48 *93:10 *1144:A0 0.000141954
49 *93:10 *1144:S 0.000355822
50 *93:10 *256:23 2.9938e-05
51 *93:10 *327:12 0.000181131
52 *93:23 *240:94 6.39814e-05
53 *93:23 *298:18 2.93335e-05
54 *93:40 *1284:B 3.23857e-06
55 *93:40 *285:6 0.000144501
56 *93:40 *324:48 2.35642e-05
57 *93:40 *328:8 0.000140875
58 *93:53 *150:20 6.63618e-05
59 *93:53 *151:10 0.000137754
60 *93:53 *256:23 3.02809e-05
61 *93:53 *259:16 0.000401731
62 *93:53 *270:14 1.92014e-05
63 *93:66 *1294:RESET_B 0
64 *93:66 *150:20 5.01232e-06
65 *93:66 *240:12 0
66 *93:66 *281:27 0.000427412
67 *93:93 *1151:A 0.000108559
68 *93:93 *1155:A0 4.334e-05
69 *93:93 *158:10 0.000247158
70 *93:93 *162:18 0
71 *93:93 *163:10 0
72 *93:93 *240:8 2.93845e-05
73 *93:93 *240:12 0
74 *93:93 *240:27 0
75 *93:93 *240:149 0.000183876
76 *93:93 *303:27 8.57485e-05
77 *93:93 *314:18 1.82544e-05
78 *93:114 *1154:A2 6.60739e-05
79 *93:114 *1154:B1 1.28818e-05
80 *93:114 *1154:B2 9.8592e-06
81 *93:114 *1157:S 4.23916e-05
82 *93:114 *1296:RESET_B 5.3304e-05
83 *93:114 *162:12 7.48516e-05
84 *93:114 *162:44 4.83798e-05
85 *93:120 *173:23 0.00019747
86 *93:120 *175:8 0.000150878
87 *93:120 *239:74 6.7177e-06
88 *93:120 *240:57 0
89 *93:120 *256:76 0.000111106
90 *93:120 *256:86 0
91 *93:120 *256:112 0.000277714
92 *93:120 *314:10 0
93 *93:120 *315:10 4.08641e-05
94 *93:120 *335:12 1.29944e-05
95 *93:120 *340:16 0
96 *93:139 *1185:A 0
97 *93:139 *1306:RESET_B 0.000163256
98 *93:139 *171:10 0
99 *93:139 *239:74 1.19796e-05
100 *93:139 *242:60 0.000218553
101 *93:139 *256:112 0.000390135
102 *93:139 *267:10 0.000113244
103 *93:147 *1176:A2 5.90675e-06
104 *93:147 *1176:B1 1.14154e-05
105 *93:147 *1185:A 0.000166522
106 *93:147 *1189:S 0
107 *93:147 *1316:CLK 1.71334e-05
108 *93:147 *1396:A 7.95762e-05
109 *93:147 *182:10 5.21127e-05
110 *93:147 *251:23 0.000191166
111 *93:164 *1188:A2 0
112 *93:164 *1193:A2 7.95762e-05
113 *93:164 *182:10 3.55887e-05
114 *93:164 *251:23 8.11552e-05
115 *93:164 *252:12 0
116 *93:164 *256:821 0.000277293
117 *93:164 *313:8 4.49946e-05
118 *93:164 *346:27 0.000325056
119 *93:168 *1129:A1 9.05525e-05
120 *93:168 *1312:CLK 9.81834e-05
121 *93:168 *143:10 6.3585e-05
122 *93:168 *252:10 1.94812e-05
123 *93:189 *1129:A1 7.26246e-05
124 *93:189 *1130:B1 9.67842e-05
125 *93:189 *1202:A0 1.57571e-05
126 *93:189 *1204:B1 0.00010018
127 *93:189 *1394:A 2.93747e-05
128 *93:189 *143:10 5.75756e-06
129 *93:189 *145:20 0.000137968
130 *93:189 *255:23 0.000228522
131 *93:218 *1159:B1 1.47394e-05
132 *93:218 *1296:RESET_B 4.41021e-05
133 *93:218 *162:44 1.83278e-05
134 *93:218 *314:37 0.000176334
135 *93:218 *335:12 2.04934e-05
136 *45:8 *93:139 2.48696e-05
137 *51:10 *1193:A1 8.91468e-07
138 *52:10 *93:120 0
*RES
1 *1076:X *93:6 26.48 
2 *93:6 *93:10 13.0293 
3 *93:10 *1282:A 23 
4 *93:10 *93:23 34.4121 
5 *93:23 *1283:A1 23 
6 *93:23 *93:40 39.425 
7 *93:40 *1077:A 23 
8 *93:6 *93:53 24.0107 
9 *93:53 *1143:C1 39.595 
10 *93:53 *93:66 6.13143 
11 *93:66 *1148:A1 41.045 
12 *93:66 *93:93 44.8521 
13 *93:93 *93:95 15 
14 *93:95 *1154:C1 23 
15 *93:95 *93:114 7.66429 
16 *93:114 *93:120 32.4414 
17 *93:120 *1171:C1 41.6664 
18 *93:120 *93:139 26.4136 
19 *93:139 *93:147 25.1293 
20 *93:147 *1188:C1 38.8493 
21 *93:147 *93:164 26.2893 
22 *93:164 *93:168 22.54 
23 *93:168 *1131:C1 38 
24 *93:168 *93:189 27.1386 
25 *93:189 *1204:A2 23 
26 *93:164 *1193:A1 23.6214 
27 *93:139 *1176:A1 23.6214 
28 *93:114 *93:218 35.7793 
29 *93:218 *1159:A1 23 
*END

*D_NET *94 0.00228132
*CONN
*I *1078:B I *D sky130_fd_sc_hd__and2_1
*I *1285:B I *D sky130_fd_sc_hd__nor2_1
*I *1284:A I *D sky130_fd_sc_hd__nor2_1
*I *1077:X O *D sky130_fd_sc_hd__and3_1
*CAP
1 *1078:B 1.28918e-05
2 *1285:B 0.000148245
3 *1284:A 0.000180202
4 *1077:X 4.99221e-05
5 *94:25 0.000413069
6 *94:8 0.000482057
7 *1078:B *326:20 5.47983e-06
8 *1284:A *324:48 0.000346188
9 *1285:B *1079:A 0.000146822
10 *1285:B *240:90 7.42808e-05
11 *94:8 *1077:B 5.3304e-05
12 *94:25 *240:90 2.93335e-05
13 *94:25 *240:92 4.51842e-05
14 *94:25 *256:621 4.91097e-05
15 *94:25 *324:48 0.000104145
16 *94:25 *326:20 2.10502e-05
17 *1287:D *94:25 6.63793e-06
18 *91:10 *1284:A 0.000113398
*RES
1 *1077:X *94:8 38.6214 
2 *94:8 *1284:A 42.7229 
3 *94:8 *94:25 20.0336 
4 *94:25 *1285:B 26.5007 
5 *94:25 *1078:B 23.4971 
*END

*D_NET *95 0.000333873
*CONN
*I *1079:A I *D sky130_fd_sc_hd__clkbuf_1
*I *1078:X O *D sky130_fd_sc_hd__and2_1
*CAP
1 *1079:A 2.01149e-05
2 *1078:X 2.01149e-05
3 *1079:A *240:90 0.000146822
4 *1285:B *1079:A 0.000146822
*RES
1 *1078:X *1079:A 47.5743 
*END

*D_NET *96 0.00035738
*CONN
*I *1089:A2 I *D sky130_fd_sc_hd__a211o_1
*I *1080:Y O *D sky130_fd_sc_hd__inv_2
*CAP
1 *1089:A2 1.40692e-05
2 *1080:Y 0.000105458
3 *96:8 0.000119527
4 *1089:A2 *1262:A 2.93747e-05
5 *1089:A2 *99:31 5.82853e-05
6 *96:8 *98:111 0
7 *96:8 *104:8 2.79004e-05
8 *96:8 *355:78 2.76611e-06
*RES
1 *1080:Y *96:8 39.9057 
2 *96:8 *1089:A2 38.6214 
*END

*D_NET *97 0.00879605
*CONN
*I *1279:B1 I *D sky130_fd_sc_hd__a21oi_1
*I *1124:A1 I *D sky130_fd_sc_hd__o2111a_2
*I *1089:B1 I *D sky130_fd_sc_hd__a211o_1
*I *1081:Y O *D sky130_fd_sc_hd__inv_2
*CAP
1 *1279:B1 0
2 *1124:A1 0
3 *1089:B1 0
4 *1081:Y 0.000399738
5 *97:36 0.000857755
6 *97:30 0.00196023
7 *97:14 0.00163856
8 *97:8 0.000935822
9 *97:14 *1333:CLK 0.000173083
10 *97:14 *256:339 0.000218838
11 *97:30 *1112:C 0.000139982
12 *97:30 *1276:B1 6.07447e-05
13 *97:30 *1333:CLK 6.17437e-06
14 *97:30 *124:38 1.06734e-05
15 *97:30 *128:12 2.06822e-05
16 *97:30 *132:10 8.47399e-05
17 *97:30 *133:10 4.77164e-06
18 *97:30 *137:37 0
19 *97:30 *138:24 7.37167e-05
20 *97:30 *373:21 0.000103405
21 *97:30 *373:25 9.03964e-06
22 *97:36 *1251:A1 5.97612e-05
23 *97:36 *1263:A 0.000165384
24 *97:36 *1276:A3 1.01436e-05
25 *97:36 *1276:B1 0.00013274
26 *97:36 *98:111 0.000176717
27 *97:36 *117:25 2.14486e-05
28 *97:36 *120:18 0.000295514
29 *97:36 *265:10 0.000142418
30 *97:36 *355:48 2.33161e-05
31 *97:36 *355:78 0.000234976
32 *97:36 *377:25 0
33 *97:36 *377:37 0.000217816
34 *30:10 *97:14 0.000334225
35 *30:58 *97:14 0.000283633
*RES
1 *1081:Y *97:8 42.9093 
2 *97:8 *97:14 27.6771 
3 *97:14 *97:30 46.3695 
4 *97:30 *97:36 35.6884 
5 *97:36 *1089:B1 38 
6 *97:30 *1124:A1 23 
7 *97:14 *1279:B1 23 
*END

*D_NET *98 0.0125015
*CONN
*I *1116:A1 I *D sky130_fd_sc_hd__a2111oi_1
*I *1088:A1 I *D sky130_fd_sc_hd__a221o_1
*I *1104:A1 I *D sky130_fd_sc_hd__a2111o_1
*I *1258:B1 I *D sky130_fd_sc_hd__o21ai_1
*I *1257:A I *D sky130_fd_sc_hd__or3_1
*I *1101:A1 I *D sky130_fd_sc_hd__o21ai_1
*I *1108:A1 I *D sky130_fd_sc_hd__a2111o_2
*I *1092:A1 I *D sky130_fd_sc_hd__a221oi_2
*I *1105:A1 I *D sky130_fd_sc_hd__o21ai_1
*I *1082:Y O *D sky130_fd_sc_hd__inv_2
*CAP
1 *1116:A1 0.000140242
2 *1088:A1 0
3 *1104:A1 0
4 *1258:B1 0
5 *1257:A 0
6 *1101:A1 0
7 *1108:A1 0.000113465
8 *1092:A1 0
9 *1105:A1 0
10 *1082:Y 0.000498039
11 *98:111 0.000339057
12 *98:105 0.000896268
13 *98:98 0.000546202
14 *98:89 0.000252783
15 *98:72 0.000887433
16 *98:61 0.000943546
17 *98:39 0.000903925
18 *98:18 0.00106877
19 *98:14 0.00061116
20 *98:12 0.000911996
21 *98:10 0.000897521
22 *1108:A1 *1108:C1 9.5877e-05
23 *1108:A1 *246:95 9.84794e-05
24 *1108:A1 *256:451 1.79651e-05
25 *1116:A1 *1116:A2 0.000102971
26 *1116:A1 *1263:A 3.86731e-05
27 *98:10 *102:28 4.98504e-05
28 *98:10 *118:10 0.000107658
29 *98:12 *239:128 3.90213e-05
30 *98:14 *1425:A 0
31 *98:14 *121:10 4.99753e-06
32 *98:14 *123:10 0.000351608
33 *98:14 *131:16 0
34 *98:14 *239:128 0.000113414
35 *98:14 *246:95 0.000114113
36 *98:18 *1247:A 0
37 *98:18 *121:10 2.96369e-05
38 *98:18 *126:48 0
39 *98:18 *376:10 0
40 *98:39 *1095:A1 4.6315e-05
41 *98:39 *1105:B1 3.42398e-05
42 *98:39 *1123:B1 2.38163e-05
43 *98:39 *1247:B 5.91417e-06
44 *98:39 *99:57 5.93746e-05
45 *98:39 *106:8 3.98887e-05
46 *98:39 *121:10 3.91683e-06
47 *98:39 *256:459 0
48 *98:39 *361:25 5.8118e-05
49 *98:39 *364:33 1.79366e-05
50 *98:39 *376:10 1.85903e-05
51 *98:61 *117:12 6.25945e-05
52 *98:61 *120:18 6.17437e-06
53 *98:72 *1257:B 3.86588e-05
54 *98:72 *1259:C 3.7122e-06
55 *98:72 *117:12 3.42479e-05
56 *98:72 *117:25 1.10658e-05
57 *98:72 *120:18 0.00016136
58 *98:72 *377:37 0.000360539
59 *98:89 *1259:C 9.86777e-06
60 *98:89 *127:60 7.53805e-05
61 *98:89 *127:70 8.85496e-05
62 *98:89 *139:27 0
63 *98:89 *219:19 2.14738e-05
64 *98:89 *221:8 3.88629e-05
65 *98:89 *247:8 5.70419e-05
66 *98:98 *367:23 0.000144501
67 *98:98 *367:32 5.79559e-05
68 *98:105 *1116:A2 0.000274654
69 *98:105 *367:32 0.000301823
70 *98:111 *99:107 0
71 *98:111 *101:10 2.67179e-05
72 *98:111 *104:8 2.79004e-05
73 *98:111 *355:48 3.88725e-05
74 *96:8 *98:111 0
75 *97:36 *98:111 0.000176717
*RES
1 *1082:Y *98:10 45.0636 
2 *98:10 *98:12 4.72286 
3 *98:12 *98:14 8.24429 
4 *98:14 *98:18 17.61 
5 *98:18 *1105:A1 23 
6 *98:18 *98:39 46.4264 
7 *98:39 *1092:A1 23 
8 *98:14 *1108:A1 40.5479 
9 *98:12 *98:61 20.7586 
10 *98:61 *1101:A1 23 
11 *98:61 *98:72 13.6507 
12 *98:72 *1257:A 23 
13 *98:72 *98:89 35.655 
14 *98:89 *1258:B1 23 
15 *98:10 *98:98 17.0507 
16 *98:98 *1104:A1 23 
17 *98:98 *98:105 6.33857 
18 *98:105 *98:111 37.1879 
19 *98:111 *1088:A1 23 
20 *98:105 *1116:A1 26.045 
*END

*D_NET *99 0.0165088
*CONN
*I *1243:A1 I *D sky130_fd_sc_hd__mux2_1
*I *1265:A1 I *D sky130_fd_sc_hd__o211a_1
*I *1262:B I *D sky130_fd_sc_hd__nand2_1
*I *1085:A I *D sky130_fd_sc_hd__nand2_1
*I *1084:A I *D sky130_fd_sc_hd__or2_1
*I *1102:A I *D sky130_fd_sc_hd__xor2_1
*I *1106:A I *D sky130_fd_sc_hd__xor2_1
*I *1090:A I *D sky130_fd_sc_hd__inv_2
*I *1097:B I *D sky130_fd_sc_hd__xnor2_1
*I *1263:B I *D sky130_fd_sc_hd__or2_1
*I *1083:X O *D sky130_fd_sc_hd__clkbuf_4
*CAP
1 *1243:A1 0
2 *1265:A1 0
3 *1262:B 3.73381e-05
4 *1085:A 2.30556e-05
5 *1084:A 0
6 *1102:A 4.17755e-05
7 *1106:A 0.000158836
8 *1090:A 0
9 *1097:B 0
10 *1263:B 0.000160006
11 *1083:X 0
12 *99:141 0.000279546
13 *99:107 0.000208375
14 *99:69 0.000762844
15 *99:57 0.000895072
16 *99:51 0.00104363
17 *99:43 0.00151938
18 *99:41 0.00104801
19 *99:33 0.000869035
20 *99:31 0.000432007
21 *99:29 0.000553659
22 *99:14 0.000891823
23 *99:8 0.00151819
24 *99:4 0.00127685
25 *1262:B *1262:A 4.13717e-05
26 *1262:B *105:12 1.39942e-05
27 *1263:B *1263:A 0.000147656
28 *99:8 *1083:A 9.11847e-06
29 *99:8 *1265:B1 1.34966e-05
30 *99:8 *1341:RESET_B 1.24766e-05
31 *99:8 *247:36 0.000103405
32 *99:8 *247:48 5.40337e-05
33 *99:8 *256:327 1.23353e-05
34 *99:8 *256:331 1.79728e-05
35 *99:8 *256:394 1.86357e-05
36 *99:14 *1264:C1 0.000267765
37 *99:14 *1265:B1 2.88219e-05
38 *99:14 *102:28 2.00768e-05
39 *99:14 *127:70 2.64616e-05
40 *99:31 *1089:C1 4.36552e-05
41 *99:31 *1262:A 8.564e-05
42 *99:31 *101:10 2.07484e-05
43 *99:31 *105:12 0.000104578
44 *99:31 *355:78 5.58003e-05
45 *99:33 *1085:B 0.000144501
46 *99:33 *101:10 4.84129e-06
47 *99:41 *1085:B 9.79925e-05
48 *99:41 *102:30 3.13952e-05
49 *99:41 *102:78 4.93525e-05
50 *99:43 *102:30 0.000289423
51 *99:43 *102:38 0.000123428
52 *99:43 *122:8 2.68751e-05
53 *99:43 *239:122 0
54 *99:43 *246:20 9.80952e-05
55 *99:43 *256:256 0
56 *99:43 *367:14 5.0518e-05
57 *99:51 *1225:A0 0
58 *99:51 *1274:B 0.000153315
59 *99:51 *1346:CLK 0.000272823
60 *99:51 *102:38 0.000246856
61 *99:51 *122:8 0.000246748
62 *99:51 *126:40 0.000137533
63 *99:51 *232:10 4.70114e-05
64 *99:51 *239:18 0
65 *99:51 *239:50 0
66 *99:51 *364:33 0.000138718
67 *99:57 *108:16 5.58003e-05
68 *99:69 *1096:B 0
69 *99:69 *1100:A2 1.35999e-05
70 *99:69 *108:16 0.00018584
71 *99:69 *110:8 0
72 *99:69 *239:43 0
73 *99:69 *355:20 0.000187065
74 *99:69 *355:24 0.000841277
75 *99:107 *1084:B 1.32314e-05
76 *99:107 *1085:B 3.98887e-05
77 *99:107 *101:10 0
78 *99:107 *119:12 2.25676e-05
79 *99:141 *1366:A 0
80 *99:141 *1427:A 0
81 *99:141 *256:394 0
82 *99:141 *256:404 0
83 *1089:A2 *99:31 5.82853e-05
84 *1243:S *99:141 5.50106e-05
85 *98:39 *99:57 5.93746e-05
86 *98:111 *99:107 0
*RES
1 *1083:X *99:4 23 
2 *99:4 *99:8 13.7336 
3 *99:8 *99:14 22.1879 
4 *99:14 *1263:B 41.1279 
5 *99:14 *99:29 18.6664 
6 *99:29 *99:31 7.29143 
7 *99:31 *99:33 2.52714 
8 *99:33 *99:41 25.3986 
9 *99:41 *99:43 11.4136 
10 *99:43 *99:51 48.4564 
11 *99:51 *99:57 17.5271 
12 *99:57 *99:69 48.4771 
13 *99:69 *1097:B 23 
14 *99:57 *1090:A 23 
15 *99:43 *1106:A 40.5271 
16 *99:41 *1102:A 38.6214 
17 *99:33 *99:107 33.8529 
18 *99:107 *1084:A 23 
19 *99:31 *1085:A 23.4971 
20 *99:29 *1262:B 24.1704 
21 *99:8 *1265:A1 23 
22 *99:4 *99:141 34.64 
23 *99:141 *1243:A1 23 
*END

*D_NET *100 0.00027498
*CONN
*I *1088:B1 I *D sky130_fd_sc_hd__a221o_1
*I *1084:X O *D sky130_fd_sc_hd__or2_1
*CAP
1 *1088:B1 0.000131049
2 *1084:X 0.000131049
3 *1088:B1 *1088:B2 1.28818e-05
*RES
1 *1084:X *1088:B1 48.0507 
*END

*D_NET *101 0.000393376
*CONN
*I *1088:B2 I *D sky130_fd_sc_hd__a221o_1
*I *1085:Y O *D sky130_fd_sc_hd__nand2_1
*CAP
1 *1088:B2 8.8711e-06
2 *1085:Y 0.000149579
3 *101:10 0.00015845
4 *101:10 *103:10 1.12863e-05
5 *1088:B1 *1088:B2 1.28818e-05
6 *98:111 *101:10 2.67179e-05
7 *99:31 *101:10 2.07484e-05
8 *99:33 *101:10 4.84129e-06
9 *99:107 *101:10 0
*RES
1 *1085:Y *101:10 40.5271 
2 *101:10 *1088:B2 38.1502 
*END

*D_NET *102 0.0149753
*CONN
*I *1245:A1 I *D sky130_fd_sc_hd__mux2_1
*I *1267:A I *D sky130_fd_sc_hd__or4_1
*I *1266:B1 I *D sky130_fd_sc_hd__o31ai_1
*I *1087:A I *D sky130_fd_sc_hd__xor2_1
*I *1103:A I *D sky130_fd_sc_hd__xor2_1
*I *1107:A I *D sky130_fd_sc_hd__xor2_1
*I *1094:A I *D sky130_fd_sc_hd__or2b_1
*I *1096:B I *D sky130_fd_sc_hd__xnor2_1
*I *1091:B I *D sky130_fd_sc_hd__and2b_1
*I *1086:X O *D sky130_fd_sc_hd__clkbuf_4
*CAP
1 *1245:A1 0.000311403
2 *1267:A 2.1727e-05
3 *1266:B1 0
4 *1087:A 0.000258959
5 *1103:A 4.24511e-05
6 *1107:A 0.000133356
7 *1094:A 5.52543e-05
8 *1096:B 0.000313655
9 *1091:B 0
10 *1086:X 0
11 *102:78 0.000562895
12 *102:49 0.000644091
13 *102:38 0.00109411
14 *102:30 0.00131712
15 *102:28 0.00156687
16 *102:24 0.00107348
17 *102:18 0.000282547
18 *102:14 0.000819316
19 *102:4 0.000959368
20 *1087:A *1087:B 1.83564e-05
21 *1087:A *119:12 0
22 *1087:A *369:8 4.59027e-05
23 *1096:B *110:8 1.00084e-05
24 *1096:B *239:43 0.000153507
25 *1096:B *295:29 0
26 *1107:A *123:10 4.93341e-05
27 *1107:A *239:122 0.00026808
28 *1245:A1 *212:10 2.18926e-05
29 *1267:A *1267:D 4.00259e-06
30 *102:14 *228:10 9.84794e-05
31 *102:14 *247:64 6.17437e-06
32 *102:14 *247:68 0
33 *102:14 *256:311 0
34 *102:14 *256:327 4.89774e-05
35 *102:18 *1262:A 3.91386e-05
36 *102:18 *1267:C 1.47795e-05
37 *102:18 *1267:D 9.98532e-05
38 *102:18 *224:6 2.64616e-05
39 *102:18 *224:21 2.95526e-05
40 *102:18 *227:10 0.00010018
41 *102:18 *228:10 0.000230604
42 *102:24 *1266:A1 0
43 *102:24 *105:12 1.16551e-05
44 *102:24 *224:14 0.000137744
45 *102:28 *1082:A 5.71054e-05
46 *102:28 *1264:B1 2.95423e-05
47 *102:28 *1264:C1 1.61385e-05
48 *102:28 *118:10 0.000497562
49 *102:28 *355:59 0.00012015
50 *102:30 *246:95 3.54165e-05
51 *102:38 *1346:CLK 0.000346351
52 *102:38 *107:10 0
53 *102:38 *126:48 0.000858336
54 *102:38 *244:36 0.000541817
55 *102:38 *246:95 8.93489e-05
56 *102:38 *362:27 5.67058e-05
57 *102:38 *362:35 0
58 *102:38 *364:33 0.000138718
59 *102:49 *1095:A1 2.52927e-05
60 *102:49 *1095:B1 1.83327e-05
61 *102:49 *110:8 0.000110184
62 *102:49 *362:27 0.00027662
63 *102:78 *119:12 0
64 *1245:S *1245:A1 7.59794e-05
65 *98:10 *102:28 4.98504e-05
66 *99:14 *102:28 2.00768e-05
67 *99:41 *102:30 3.13952e-05
68 *99:41 *102:78 4.93525e-05
69 *99:43 *102:30 0.000289423
70 *99:43 *102:38 0.000123428
71 *99:51 *102:38 0.000246856
72 *99:69 *1096:B 0
*RES
1 *1086:X *102:4 23 
2 *102:4 *102:14 40.3779 
3 *102:14 *102:18 4.93 
4 *102:18 *102:24 32.61 
5 *102:24 *102:28 32.7729 
6 *102:28 *102:30 8.94857 
7 *102:30 *102:38 39.6293 
8 *102:38 *1091:B 23 
9 *102:38 *102:49 20.9864 
10 *102:49 *1096:B 44.4836 
11 *102:49 *1094:A 38.6214 
12 *102:30 *1107:A 41.48 
13 *102:28 *102:78 5.075 
14 *102:78 *1103:A 38.6214 
15 *102:78 *1087:A 42.8886 
16 *102:18 *1266:B1 23 
17 *102:14 *1267:A 23.4971 
18 *102:4 *1245:A1 28.7586 
*END

*D_NET *103 0.00114754
*CONN
*I *1088:C1 I *D sky130_fd_sc_hd__a221o_1
*I *1087:X O *D sky130_fd_sc_hd__xor2_1
*CAP
1 *1088:C1 0
2 *1087:X 0.000568127
3 *103:10 0.000568127
4 *101:10 *103:10 1.12863e-05
*RES
1 *1087:X *103:10 45.6436 
2 *103:10 *1088:C1 38 
*END

*D_NET *104 0.000456694
*CONN
*I *1089:C1 I *D sky130_fd_sc_hd__a211o_1
*I *1088:X O *D sky130_fd_sc_hd__a221o_1
*CAP
1 *1089:C1 8.79764e-05
2 *1088:X 5.99942e-05
3 *104:8 0.000147971
4 *1089:C1 *1262:A 4.88591e-05
5 *1089:C1 *355:78 1.24376e-05
6 *96:8 *104:8 2.79004e-05
7 *98:111 *104:8 2.79004e-05
8 *99:31 *1089:C1 4.36552e-05
*RES
1 *1088:X *104:8 39.2014 
2 *104:8 *1089:C1 40.0921 
*END

*D_NET *105 0.00402099
*CONN
*I *1109:A I *D sky130_fd_sc_hd__and4_1
*I *1115:A_N I *D sky130_fd_sc_hd__and4b_1
*I *1089:X O *D sky130_fd_sc_hd__a211o_1
*CAP
1 *1109:A 1.39009e-05
2 *1115:A_N 0
3 *1089:X 0.000457544
4 *105:16 0.000594257
5 *105:12 0.0010379
6 *1109:A *1109:B 5.67058e-05
7 *1109:A *1109:C 2.93845e-05
8 *105:12 *1262:A 2.75275e-06
9 *105:12 *219:58 5.40793e-05
10 *105:12 *224:6 7.48414e-05
11 *105:12 *224:14 8.57485e-05
12 *105:12 *224:21 2.02872e-05
13 *105:16 *1112:A_N 0
14 *105:16 *1256:B 0
15 *105:16 *1264:B1 3.21919e-05
16 *105:16 *127:60 0
17 *105:16 *139:27 0
18 *105:16 *139:31 0.000272905
19 *105:16 *139:42 0.000166387
20 *105:16 *219:8 0.000141869
21 *105:16 *219:19 0.00026429
22 *105:16 *219:28 0.000179811
23 *105:16 *219:43 0.000203022
24 *105:16 *219:58 6.81072e-05
25 *105:16 *225:10 0.000134776
26 *1262:B *105:12 1.39942e-05
27 *99:31 *105:12 0.000104578
28 *102:24 *105:12 1.16551e-05
*RES
1 *1089:X *105:12 45.2604 
2 *105:12 *105:16 29.4068 
3 *105:16 *1115:A_N 23 
4 *105:16 *1109:A 23.6214 
*END

*D_NET *106 0.00120203
*CONN
*I *1092:B2 I *D sky130_fd_sc_hd__a221oi_2
*I *1095:A1 I *D sky130_fd_sc_hd__o2111a_1
*I *1090:Y O *D sky130_fd_sc_hd__inv_2
*CAP
1 *1092:B2 3.93866e-05
2 *1095:A1 0.000330402
3 *1090:Y 5.61497e-05
4 *106:8 0.000425938
5 *1095:A1 *1095:B1 3.88825e-05
6 *1095:A1 *109:10 8.50457e-05
7 *1095:A1 *362:27 5.56279e-05
8 *1095:A1 *362:35 5.91037e-05
9 *98:39 *1095:A1 4.6315e-05
10 *98:39 *106:8 3.98887e-05
11 *102:49 *1095:A1 2.52927e-05
*RES
1 *1090:Y *106:8 39.2014 
2 *106:8 *1095:A1 44.2971 
3 *106:8 *1092:B2 38.8493 
*END

*D_NET *107 0.000342576
*CONN
*I *1092:C1 I *D sky130_fd_sc_hd__a221oi_2
*I *1091:X O *D sky130_fd_sc_hd__and2b_1
*CAP
1 *1092:C1 0
2 *1091:X 0.000140053
3 *107:10 0.000140053
4 *107:10 *362:27 2.30292e-05
5 *107:10 *362:35 3.94411e-05
6 *102:38 *107:10 0
*RES
1 *1091:X *107:10 40.5271 
2 *107:10 *1092:C1 38 
*END

*D_NET *108 0.00341822
*CONN
*I *1122:A1 I *D sky130_fd_sc_hd__a21o_1
*I *1120:B I *D sky130_fd_sc_hd__nand3b_1
*I *1100:A1 I *D sky130_fd_sc_hd__a21oi_1
*I *1092:Y O *D sky130_fd_sc_hd__a221oi_2
*CAP
1 *1122:A1 0.000103348
2 *1120:B 8.53268e-05
3 *1100:A1 0
4 *1092:Y 0.000181219
5 *108:27 0.000351742
6 *108:16 0.000593663
7 *108:10 0.000611815
8 *1120:B *1095:B1 8.82053e-06
9 *1120:B *1100:A2 3.9131e-05
10 *1120:B *111:14 0.000140949
11 *1120:B *115:40 7.87934e-05
12 *1122:A1 *1122:A2 0.000141355
13 *1122:A1 *1122:B1 2.50118e-05
14 *108:10 *361:25 1.23353e-05
15 *108:16 *1100:A2 5.5792e-05
16 *108:16 *129:52 5.5792e-05
17 *108:27 *1100:A2 0.000304489
18 *108:27 *1100:B1 0.000123866
19 *108:27 *115:40 2.81425e-05
20 *108:27 *116:10 8.65972e-05
21 *108:27 *129:52 0.000142678
22 *108:27 *355:20 5.71002e-06
23 *99:57 *108:16 5.58003e-05
24 *99:69 *108:16 0.00018584
*RES
1 *1092:Y *108:10 41.2314 
2 *108:10 *108:16 23.265 
3 *108:16 *1100:A1 23 
4 *108:16 *108:27 20.5929 
5 *108:27 *1120:B 40.465 
6 *108:27 *1122:A1 40.0507 
*END

*D_NET *109 0.000838464
*CONN
*I *1095:C1 I *D sky130_fd_sc_hd__o2111a_1
*I *1093:X O *D sky130_fd_sc_hd__or2b_1
*CAP
1 *1095:C1 0
2 *1093:X 0.000249793
3 *109:10 0.000249793
4 *109:10 *1093:A 2.36123e-05
5 *109:10 *361:25 0.000230219
6 *1095:A1 *109:10 8.50457e-05
*RES
1 *1093:X *109:10 42.205 
2 *109:10 *1095:C1 38 
*END

*D_NET *110 0.000359912
*CONN
*I *1095:D1 I *D sky130_fd_sc_hd__o2111a_1
*I *1094:X O *D sky130_fd_sc_hd__or2b_1
*CAP
1 *1095:D1 0
2 *1094:X 0.00011986
3 *110:8 0.00011986
4 *1096:B *110:8 1.00084e-05
5 *99:69 *110:8 0
6 *102:49 *110:8 0.000110184
*RES
1 *1094:X *110:8 40.2579 
2 *110:8 *1095:D1 38 
*END

*D_NET *111 0.00248965
*CONN
*I *1120:C I *D sky130_fd_sc_hd__nand3b_1
*I *1100:A2 I *D sky130_fd_sc_hd__a21oi_1
*I *1122:A2 I *D sky130_fd_sc_hd__a21o_1
*I *1095:X O *D sky130_fd_sc_hd__o2111a_1
*CAP
1 *1120:C 0
2 *1100:A2 0.000238898
3 *1122:A2 0.0001356
4 *1095:X 0.000238431
5 *111:14 0.000447034
6 *111:10 0.000310967
7 *1100:A2 *355:20 0.000120358
8 *1100:A2 *355:24 2.58557e-05
9 *1122:A2 *1122:B1 5.58003e-05
10 *111:10 *1095:B1 0.000119546
11 *111:10 *1120:A_N 2.84288e-05
12 *111:14 *1120:A_N 1.01436e-05
13 *111:14 *355:24 6.32688e-05
14 *1120:B *1100:A2 3.9131e-05
15 *1120:B *111:14 0.000140949
16 *1122:A1 *1122:A2 0.000141355
17 *99:69 *1100:A2 1.35999e-05
18 *108:16 *1100:A2 5.5792e-05
19 *108:27 *1100:A2 0.000304489
*RES
1 *1095:X *111:10 27.9507 
2 *111:10 *111:14 16.9057 
3 *111:14 *1122:A2 40.9 
4 *111:14 *1100:A2 43.7379 
5 *111:10 *1120:C 23 
*END

*D_NET *112 0.00169765
*CONN
*I *1099:B I *D sky130_fd_sc_hd__and4_1
*I *1119:A I *D sky130_fd_sc_hd__nand3_1
*I *1096:Y O *D sky130_fd_sc_hd__xnor2_1
*CAP
1 *1099:B 7.94824e-05
2 *1119:A 0
3 *1096:Y 0.000398816
4 *112:20 0.000175527
5 *112:12 0.000653826
6 *1099:B *1099:C 2.50118e-05
7 *1099:B *114:16 4.33627e-05
8 *1099:B *374:12 3.22879e-05
9 *112:12 *113:8 5.49348e-05
10 *112:12 *114:16 0.000142678
11 *112:20 *113:18 8.6011e-05
12 *112:20 *114:16 5.71002e-06
13 *112:20 *115:10 0
14 *112:20 *134:12 0
*RES
1 *1096:Y *112:12 30.3536 
2 *112:12 *112:20 33.1071 
3 *112:20 *1119:A 23 
4 *112:12 *1099:B 25.0714 
*END

*D_NET *113 0.00121398
*CONN
*I *1099:C I *D sky130_fd_sc_hd__and4_1
*I *1119:B I *D sky130_fd_sc_hd__nand3_1
*I *1097:Y O *D sky130_fd_sc_hd__xnor2_1
*CAP
1 *1099:C 8.36835e-05
2 *1119:B 0
3 *1097:Y 8.86755e-05
4 *113:18 0.000124799
5 *113:8 0.000297158
6 *1099:C *114:16 0.000141355
7 *1099:C *115:10 4.33627e-05
8 *113:8 *114:16 5.3304e-05
9 *113:8 *115:10 9.41704e-05
10 *113:18 *114:8 1.1258e-05
11 *113:18 *114:16 0.000110258
12 *1099:B *1099:C 2.50118e-05
13 *112:12 *113:8 5.49348e-05
14 *112:20 *113:18 8.6011e-05
*RES
1 *1097:Y *113:8 25.0714 
2 *113:8 *113:18 32.6721 
3 *113:18 *1119:B 23 
4 *113:8 *1099:C 25.0507 
*END

*D_NET *114 0.00103482
*CONN
*I *1119:C I *D sky130_fd_sc_hd__nand3_1
*I *1099:D I *D sky130_fd_sc_hd__and4_1
*I *1098:Y O *D sky130_fd_sc_hd__xnor2_1
*CAP
1 *1119:C 0
2 *1099:D 0
3 *1098:Y 5.65949e-05
4 *114:16 0.00017623
5 *114:8 0.000232825
6 *114:16 *115:10 6.12484e-05
7 *1099:B *114:16 4.33627e-05
8 *1099:C *114:16 0.000141355
9 *112:12 *114:16 0.000142678
10 *112:20 *114:16 5.71002e-06
11 *113:8 *114:16 5.3304e-05
12 *113:18 *114:8 1.1258e-05
13 *113:18 *114:16 0.000110258
*RES
1 *1098:Y *114:8 24.1186 
2 *114:8 *114:16 34.3086 
3 *114:16 *1099:D 23 
4 *114:8 *1119:C 23 
*END

*D_NET *115 0.00416867
*CONN
*I *1100:B1 I *D sky130_fd_sc_hd__a21oi_1
*I *1122:B1 I *D sky130_fd_sc_hd__a21o_1
*I *1248:A1 I *D sky130_fd_sc_hd__o21ai_1
*I *1120:A_N I *D sky130_fd_sc_hd__nand3b_1
*I *1099:X O *D sky130_fd_sc_hd__and4_1
*CAP
1 *1100:B1 0.000202424
2 *1122:B1 0.000116193
3 *1248:A1 0.000146954
4 *1120:A_N 0.000110643
5 *1099:X 0.000458329
6 *115:40 0.000512703
7 *115:27 0.000403869
8 *115:10 0.0006318
9 *1100:B1 *116:10 0.000108837
10 *1100:B1 *129:52 4.05745e-05
11 *1120:A_N *1095:B1 1.41129e-05
12 *1120:A_N *355:24 8.43224e-05
13 *1122:B1 *137:10 7.61229e-06
14 *1248:A1 *1095:B1 5.3304e-05
15 *1248:A1 *134:24 2.13216e-05
16 *1248:A1 *135:6 4.79641e-05
17 *1248:A1 *135:15 8.58411e-05
18 *1248:A1 *136:8 0.000221992
19 *1248:A1 *213:41 1.24376e-05
20 *115:10 *1121:A1 0
21 *115:10 *355:24 0.000219848
22 *115:10 *374:12 0
23 *115:10 *375:12 2.63947e-05
24 *115:27 *375:12 5.74473e-05
25 *115:40 *136:12 0
26 *115:40 *375:12 3.47781e-05
27 *1099:C *115:10 4.33627e-05
28 *1120:B *115:40 7.87934e-05
29 *1122:A1 *1122:B1 2.50118e-05
30 *1122:A2 *1122:B1 5.58003e-05
31 *108:27 *1100:B1 0.000123866
32 *108:27 *115:40 2.81425e-05
33 *111:10 *1120:A_N 2.84288e-05
34 *111:14 *1120:A_N 1.01436e-05
35 *112:20 *115:10 0
36 *113:8 *115:10 9.41704e-05
37 *114:16 *115:10 6.12484e-05
*RES
1 *1099:X *115:10 48.2639 
2 *115:10 *1120:A_N 40.5375 
3 *115:10 *115:27 1.85393 
4 *115:27 *1248:A1 41.9771 
5 *115:27 *115:40 3.31429 
6 *115:40 *1122:B1 40.5479 
7 *115:40 *1100:B1 42.5364 
*END

*D_NET *116 0.00352938
*CONN
*I *1109:B I *D sky130_fd_sc_hd__and4_1
*I *1115:B I *D sky130_fd_sc_hd__and4b_1
*I *1118:A1 I *D sky130_fd_sc_hd__a31o_1
*I *1100:Y O *D sky130_fd_sc_hd__a21oi_1
*CAP
1 *1109:B 6.83398e-05
2 *1115:B 0
3 *1118:A1 0
4 *1100:Y 0.000378948
5 *116:29 0.000605524
6 *116:16 0.000643653
7 *116:10 0.000485417
8 *1109:B *1109:C 9.3456e-05
9 *1109:B *1109:D 0.000292635
10 *116:10 *1251:A1 6.51997e-06
11 *116:10 *124:44 0
12 *116:10 *137:20 0.000217073
13 *116:10 *137:37 9.28078e-06
14 *116:16 *1118:A2 5.00237e-05
15 *116:16 *1273:B1 5.91154e-06
16 *116:29 *1112:A_N 0
17 *116:29 *1118:A2 5.82853e-05
18 *116:29 *1118:A3 5.5792e-05
19 *116:29 *1125:A2 0.000142349
20 *116:29 *1343:CLK 7.48505e-05
21 *116:29 *127:47 0
22 *116:29 *127:60 0
23 *116:29 *133:10 1.21972e-05
24 *116:29 *139:27 6.58373e-05
25 *1100:B1 *116:10 0.000108837
26 *1109:A *1109:B 5.67058e-05
27 *1343:D *116:29 1.11466e-05
28 *108:27 *116:10 8.65972e-05
*RES
1 *1100:Y *116:10 44.8771 
2 *116:10 *116:16 17.0714 
3 *116:16 *1118:A1 23 
4 *116:16 *116:29 40.2121 
5 *116:29 *1115:B 23 
6 *116:29 *1109:B 26.5007 
*END

*D_NET *117 0.00129607
*CONN
*I *1116:B1 I *D sky130_fd_sc_hd__a2111oi_1
*I *1104:B1 I *D sky130_fd_sc_hd__a2111o_1
*I *1101:Y O *D sky130_fd_sc_hd__o21ai_1
*CAP
1 *1116:B1 0
2 *1104:B1 0
3 *1101:Y 0
4 *117:25 0.000188688
5 *117:12 0.00029343
6 *117:4 0.000482118
7 *117:12 *131:16 3.76854e-05
8 *117:25 *355:48 8.57577e-05
9 *117:25 *377:37 7.90354e-05
10 *97:36 *117:25 2.14486e-05
11 *98:61 *117:12 6.25945e-05
12 *98:72 *117:12 3.42479e-05
13 *98:72 *117:25 1.10658e-05
*RES
1 *1101:Y *117:4 23 
2 *117:4 *117:12 34.205 
3 *117:12 *1104:B1 23 
4 *117:4 *117:25 33.2521 
5 *117:25 *1116:B1 23 
*END

*D_NET *118 0.00222003
*CONN
*I *1116:C1 I *D sky130_fd_sc_hd__a2111oi_1
*I *1104:C1 I *D sky130_fd_sc_hd__a2111o_1
*I *1102:X O *D sky130_fd_sc_hd__xor2_1
*CAP
1 *1116:C1 9.92902e-05
2 *1104:C1 0
3 *1102:X 0.000293772
4 *118:12 9.92902e-05
5 *118:10 0.000293772
6 *1116:C1 *1116:A2 0.000174169
7 *1116:C1 *1116:D1 6.96685e-05
8 *1116:C1 *131:8 0.000185371
9 *1116:C1 *367:32 0.000186856
10 *118:10 *119:20 0.000212622
11 *98:10 *118:10 0.000107658
12 *102:28 *118:10 0.000497562
*RES
1 *1102:X *118:10 46.3479 
2 *118:10 *118:12 15 
3 *118:12 *1104:C1 23 
4 *118:12 *1116:C1 26.9564 
*END

*D_NET *119 0.00268217
*CONN
*I *1116:D1 I *D sky130_fd_sc_hd__a2111oi_1
*I *1104:D1 I *D sky130_fd_sc_hd__a2111o_1
*I *1103:X O *D sky130_fd_sc_hd__xor2_1
*CAP
1 *1116:D1 0.000161954
2 *1104:D1 5.67706e-05
3 *1103:X 0.000400713
4 *119:20 0.000570195
5 *119:12 0.000752183
6 *1116:D1 *120:10 5.3304e-05
7 *1116:D1 *131:8 0.000185371
8 *119:12 *1085:B 0.000141975
9 *119:12 *371:12 2.51382e-05
10 *119:20 *131:16 2.97067e-05
11 *1087:A *119:12 0
12 *1116:C1 *1116:D1 6.96685e-05
13 *99:107 *119:12 2.25676e-05
14 *102:78 *119:12 0
15 *118:10 *119:20 0.000212622
*RES
1 *1103:X *119:12 45.5918 
2 *119:12 *119:20 21.7218 
3 *119:20 *1104:D1 24.1186 
4 *119:20 *1116:D1 26.9771 
*END

*D_NET *120 0.00638129
*CONN
*I *1109:C I *D sky130_fd_sc_hd__and4_1
*I *1115:C I *D sky130_fd_sc_hd__and4b_1
*I *1251:A1 I *D sky130_fd_sc_hd__a21oi_1
*I *1104:X O *D sky130_fd_sc_hd__a2111o_1
*CAP
1 *1109:C 0.000283833
2 *1115:C 0
3 *1251:A1 0.000470424
4 *1104:X 0.000173045
5 *120:37 0.000623421
6 *120:18 0.00127808
7 *120:10 0.000641115
8 *1109:C *1109:D 2.89605e-05
9 *1251:A1 *1251:A2 4.49581e-06
10 *1251:A1 *1276:A3 9.6279e-05
11 *1251:A1 *124:65 8.36198e-05
12 *1251:A1 *137:20 6.39633e-05
13 *1251:A1 *137:37 7.45705e-05
14 *1251:A1 *265:10 0
15 *1251:A1 *355:20 0.000261339
16 *1251:A1 *355:48 0.000416182
17 *120:10 *131:16 0.000102198
18 *120:10 *355:48 0
19 *120:10 *367:38 0.000109343
20 *120:18 *355:48 0.000580282
21 *120:37 *1109:D 3.48973e-05
22 *120:37 *1115:D 1.40996e-06
23 *120:37 *124:34 0.000200481
24 *120:37 *124:81 0.000101484
25 *120:37 *377:8 4.63956e-05
26 *1109:A *1109:C 2.93845e-05
27 *1109:B *1109:C 9.3456e-05
28 *1116:D1 *120:10 5.3304e-05
29 *97:36 *1251:A1 5.97612e-05
30 *97:36 *120:18 0.000295514
31 *98:61 *120:18 6.17437e-06
32 *98:72 *120:18 0.00016136
33 *116:10 *1251:A1 6.51997e-06
*RES
1 *1104:X *120:10 41.5836 
2 *120:10 *120:18 41.3721 
3 *120:18 *1251:A1 47.9221 
4 *120:18 *120:37 22.4571 
5 *120:37 *1115:C 23 
6 *120:37 *1109:C 27.9507 
*END

*D_NET *121 0.000860506
*CONN
*I *1108:B1 I *D sky130_fd_sc_hd__a2111o_2
*I *1105:Y O *D sky130_fd_sc_hd__o21ai_1
*CAP
1 *1108:B1 0
2 *1105:Y 0.000243785
3 *121:10 0.000243785
4 *121:10 *126:48 0.000137788
5 *121:10 *246:95 1.14452e-05
6 *121:10 *364:33 0.000185152
7 *98:14 *121:10 4.99753e-06
8 *98:18 *121:10 2.96369e-05
9 *98:39 *121:10 3.91683e-06
*RES
1 *1105:Y *121:10 42.4329 
2 *121:10 *1108:B1 38 
*END

*D_NET *122 0.00128296
*CONN
*I *1108:C1 I *D sky130_fd_sc_hd__a2111o_2
*I *1106:X O *D sky130_fd_sc_hd__xor2_1
*CAP
1 *1108:C1 0.000270746
2 *1106:X 0.000158672
3 *122:8 0.000429418
4 *1108:C1 *256:451 4.96675e-06
5 *1108:C1 *364:23 4.9662e-05
6 *122:8 *239:50 0
7 *1108:A1 *1108:C1 9.5877e-05
8 *99:43 *122:8 2.68751e-05
9 *99:51 *122:8 0.000246748
*RES
1 *1106:X *122:8 41.6664 
2 *122:8 *1108:C1 41.5007 
*END

*D_NET *123 0.00156307
*CONN
*I *1108:D1 I *D sky130_fd_sc_hd__a2111o_2
*I *1107:X O *D sky130_fd_sc_hd__xor2_1
*CAP
1 *1108:D1 0
2 *1107:X 0.000383894
3 *123:10 0.000383894
4 *123:10 *239:122 4.27353e-05
5 *123:10 *246:95 0.000351608
6 *1107:A *123:10 4.93341e-05
7 *98:14 *123:10 0.000351608
*RES
1 *1107:X *123:10 46.2029 
2 *123:10 *1108:D1 38 
*END

*D_NET *124 0.00778958
*CONN
*I *1109:D I *D sky130_fd_sc_hd__and4_1
*I *1115:D I *D sky130_fd_sc_hd__and4b_1
*I *1118:A3 I *D sky130_fd_sc_hd__a31o_1
*I *1273:A3 I *D sky130_fd_sc_hd__o31a_1
*I *1251:A2 I *D sky130_fd_sc_hd__a21oi_1
*I *1247:B I *D sky130_fd_sc_hd__nand2_1
*I *1123:A2 I *D sky130_fd_sc_hd__o21ai_1
*I *1108:X O *D sky130_fd_sc_hd__a2111o_2
*CAP
1 *1109:D 0.000134512
2 *1115:D 1.94133e-05
3 *1118:A3 1.82709e-05
4 *1273:A3 0
5 *1251:A2 0.000100163
6 *1247:B 0.000260739
7 *1123:A2 0
8 *1108:X 0.000344626
9 *124:81 0.000222096
10 *124:65 0.000211931
11 *124:44 0.000715791
12 *124:38 0.000670445
13 *124:34 0.000876484
14 *124:14 0.000358951
15 *124:6 0.00100267
16 *1109:D *125:8 2.45549e-06
17 *1109:D *130:23 0.000440645
18 *1118:A3 *133:10 2.95423e-05
19 *1247:B *1247:A 3.01328e-05
20 *1247:B *138:16 3.30634e-05
21 *1247:B *213:14 2.54705e-07
22 *1251:A2 *216:12 1.92324e-05
23 *124:6 *246:95 0.000151874
24 *124:6 *256:451 1.00062e-05
25 *124:14 *1247:A 4.80733e-05
26 *124:14 *138:16 5.79559e-05
27 *124:14 *256:459 0.000110184
28 *124:34 *1347:RESET_B 1.16797e-05
29 *124:38 *1125:A2 0
30 *124:38 *1276:B1 0.000135557
31 *124:38 *130:12 3.83778e-05
32 *124:38 *132:10 0
33 *124:38 *133:10 0.00013478
34 *124:38 *136:12 0.000157839
35 *124:38 *213:41 5.79413e-06
36 *124:44 *136:12 0.000157868
37 *124:44 *137:20 8.06804e-06
38 *124:44 *216:12 9.91842e-05
39 *124:65 *1273:A1 1.24376e-05
40 *124:65 *1273:A2 0.000109104
41 *124:65 *1273:B1 2.69767e-05
42 *124:65 *137:20 8.36198e-05
43 *124:81 *130:23 8.56792e-05
44 *1109:B *1109:D 0.000292635
45 *1109:C *1109:D 2.89605e-05
46 *1251:A1 *1251:A2 4.49581e-06
47 *1251:A1 *124:65 8.36198e-05
48 *1347:D *124:6 1.23293e-05
49 *1347:D *124:34 2.04034e-05
50 *97:30 *124:38 1.06734e-05
51 *98:39 *1247:B 5.91417e-06
52 *116:10 *124:44 0
53 *116:29 *1118:A3 5.5792e-05
54 *120:37 *1109:D 3.48973e-05
55 *120:37 *1115:D 1.40996e-06
56 *120:37 *124:34 0.000200481
57 *120:37 *124:81 0.000101484
*RES
1 *1108:X *124:6 27.9093 
2 *124:6 *124:14 32.175 
3 *124:14 *1123:A2 23 
4 *124:14 *1247:B 27.2257 
5 *124:6 *124:34 7.31214 
6 *124:34 *124:38 20.075 
7 *124:38 *124:44 21.2143 
8 *124:44 *1251:A2 24.8229 
9 *124:44 *124:65 34.2464 
10 *124:65 *1273:A3 23 
11 *124:38 *1118:A3 38.6214 
12 *124:34 *124:81 1.92125 
13 *124:81 *1115:D 23.4971 
14 *124:81 *1109:D 28.888 
*END

*D_NET *125 0.00121152
*CONN
*I *1256:B I *D sky130_fd_sc_hd__nand2_2
*I *1112:A_N I *D sky130_fd_sc_hd__and3b_1
*I *1109:X O *D sky130_fd_sc_hd__and4_1
*CAP
1 *1256:B 9.56768e-05
2 *1112:A_N 0.000229753
3 *1109:X 9.81987e-05
4 *125:8 0.000423628
5 *1112:A_N *127:60 0.000218943
6 *1112:A_N *139:27 0
7 *1112:A_N *373:21 0
8 *1256:B *127:60 0.000135557
9 *125:8 *130:23 7.30979e-06
10 *1109:D *125:8 2.45549e-06
11 *105:16 *1112:A_N 0
12 *105:16 *1256:B 0
13 *116:29 *1112:A_N 0
*RES
1 *1109:X *125:8 39.0979 
2 *125:8 *1112:A_N 41.8114 
3 *125:8 *1256:B 39.9057 
*END

*D_NET *126 0.0378602
*CONN
*I *1219:S I *D sky130_fd_sc_hd__mux2_1
*I *1217:S I *D sky130_fd_sc_hd__mux2_1
*I *1213:S I *D sky130_fd_sc_hd__mux2_1
*I *1268:B1 I *D sky130_fd_sc_hd__a21oi_1
*I *1211:S I *D sky130_fd_sc_hd__mux2_1
*I *1215:S I *D sky130_fd_sc_hd__mux2_1
*I *1221:S I *D sky130_fd_sc_hd__mux2_1
*I *1227:S I *D sky130_fd_sc_hd__mux2_1
*I *1223:S I *D sky130_fd_sc_hd__mux2_1
*I *1233:S I *D sky130_fd_sc_hd__mux2_1
*I *1237:S I *D sky130_fd_sc_hd__mux2_1
*I *1235:S I *D sky130_fd_sc_hd__mux2_1
*I *1239:S I *D sky130_fd_sc_hd__mux2_1
*I *1225:S I *D sky130_fd_sc_hd__mux2_1
*I *1274:A I *D sky130_fd_sc_hd__or2_1
*I *1277:A I *D sky130_fd_sc_hd__or2_1
*I *1280:A I *D sky130_fd_sc_hd__or2_1
*I *1111:A I *D sky130_fd_sc_hd__inv_2
*I *1229:S I *D sky130_fd_sc_hd__mux2_1
*I *1231:S I *D sky130_fd_sc_hd__mux2_1
*I *1110:X O *D sky130_fd_sc_hd__buf_6
*CAP
1 *1219:S 0.000639393
2 *1217:S 8.07221e-05
3 *1213:S 0
4 *1268:B1 0
5 *1211:S 3.38673e-05
6 *1215:S 0
7 *1221:S 0
8 *1227:S 0
9 *1223:S 0.000101284
10 *1233:S 0.000321742
11 *1237:S 3.56555e-05
12 *1235:S 0
13 *1239:S 7.23536e-05
14 *1225:S 0.000158602
15 *1274:A 0
16 *1277:A 0
17 *1280:A 3.12761e-05
18 *1111:A 0
19 *1229:S 0
20 *1231:S 0
21 *1110:X 4.73065e-05
22 *126:248 0.000645215
23 *126:233 0.00153765
24 *126:223 0.00106521
25 *126:216 0.000577857
26 *126:203 0.00061487
27 *126:199 0.00107386
28 *126:184 0.000799719
29 *126:180 0.00129336
30 *126:169 0.00133705
31 *126:136 0.000527213
32 *126:130 0.000828039
33 *126:117 0.000698685
34 *126:115 0.00129953
35 *126:72 0.000879925
36 *126:64 0.00227226
37 *126:48 0.00226919
38 *126:40 0.00134522
39 *126:36 0.000876987
40 *126:32 0.000924842
41 *126:25 0.000651911
42 *126:12 0.000625001
43 *126:10 0.00101762
44 *126:8 0.000432895
45 *1211:S *1211:A0 5.50106e-05
46 *1217:S *1217:A1 0.000141352
47 *1217:S *367:14 0.000102971
48 *1217:S *368:23 2.50118e-05
49 *1219:S *1205:A0 7.51697e-05
50 *1219:S *199:10 8.57485e-05
51 *1219:S *256:150 3.84849e-05
52 *1219:S *277:20 3.64813e-05
53 *1219:S *304:18 0
54 *1219:S *324:116 1.34966e-05
55 *1219:S *325:88 9.74774e-05
56 *1223:S *1223:A0 0.000102389
57 *1223:S *1223:A1 7.12732e-05
58 *1233:S *1233:A0 0.000119313
59 *1233:S *206:10 2.65879e-05
60 *1233:S *363:8 5.67058e-05
61 *1237:S *1237:A1 5.55743e-06
62 *1239:S *275:14 0.000189848
63 *1280:A *236:10 2.93431e-05
64 *126:8 *256:627 3.71887e-05
65 *126:10 *1181:S 0.000428672
66 *126:10 *162:55 0.000237053
67 *126:10 *178:10 0.000280635
68 *126:10 *256:639 0
69 *126:10 *326:76 7.73301e-05
70 *126:25 *1232:A 0.000143423
71 *126:25 *280:21 0.000329837
72 *126:25 *361:25 5.41385e-05
73 *126:25 *362:14 5.01469e-05
74 *126:32 *361:25 1.76557e-05
75 *126:36 *361:10 3.64813e-05
76 *126:40 *232:10 4.24646e-05
77 *126:48 *1425:A 0.000274234
78 *126:48 *246:95 9.03054e-05
79 *126:48 *376:10 0
80 *126:64 *1256:A 0.000229599
81 *126:64 *1348:CLK 3.05299e-05
82 *126:64 *1425:A 6.22553e-05
83 *126:64 *132:10 9.84851e-05
84 *126:64 *236:10 8.29264e-05
85 *126:64 *265:10 0.000139352
86 *126:64 *377:37 0.000185428
87 *126:72 *1333:CLK 0.000189005
88 *126:72 *127:10 5.58003e-05
89 *126:72 *130:23 1.65733e-05
90 *126:72 *130:40 6.09335e-06
91 *126:72 *235:8 8.71559e-05
92 *126:72 *245:69 0.000481523
93 *126:115 *1332:RESET_B 0
94 *126:115 *206:10 0.000336365
95 *126:115 *244:10 0
96 *126:115 *244:36 0
97 *126:115 *361:25 0.000134193
98 *126:115 *363:12 0
99 *126:117 *1332:RESET_B 0
100 *126:117 *244:10 0
101 *126:130 *208:12 0.000155455
102 *126:136 *1160:A0 0.000192479
103 *126:136 *1235:A1 0.000334217
104 *126:136 *1330:RESET_B 0.00019344
105 *126:136 *1331:CLK 7.44257e-05
106 *126:136 *207:10 4.94862e-05
107 *126:136 *208:12 1.0092e-05
108 *126:136 *359:10 0.000235687
109 *126:169 *162:55 0.000193873
110 *126:169 *256:170 0
111 *126:169 *256:184 0
112 *126:180 *1325:CLK 0
113 *126:180 *243:62 0
114 *126:180 *256:168 0
115 *126:180 *256:170 0
116 *126:180 *325:88 9.55771e-05
117 *126:180 *337:10 0.000138727
118 *126:180 *338:8 4.11274e-05
119 *126:184 *289:21 5.43544e-05
120 *126:199 *1217:A1 0.000220934
121 *126:199 *198:12 0.000323913
122 *126:199 *246:26 0.000165384
123 *126:199 *289:21 4.93812e-05
124 *126:199 *294:6 0.000275569
125 *126:199 *304:18 0.000275408
126 *126:203 *246:26 0
127 *126:203 *256:263 0.000270857
128 *126:203 *256:273 0.000184184
129 *126:203 *301:25 1.14452e-05
130 *126:203 *368:23 0
131 *126:216 *1215:A0 9.91548e-05
132 *126:216 *200:10 0
133 *126:216 *246:45 0
134 *126:216 *256:273 0.000255292
135 *126:216 *256:280 0.000361441
136 *126:216 *299:31 0.000138859
137 *126:216 *301:25 0.000130424
138 *126:216 *305:26 3.45026e-05
139 *126:216 *348:8 0
140 *126:223 *1215:A0 0.000502646
141 *126:223 *246:68 2.33782e-05
142 *126:233 *1213:A0 7.65857e-05
143 *126:233 *246:68 6.16595e-05
144 *126:233 *256:311 0.000139647
145 *126:233 *370:8 0
146 *126:248 *1211:A0 0.000215671
147 *126:248 *228:10 1.44546e-05
148 *126:248 *256:311 0
149 *126:248 *370:12 0.000227208
150 *126:248 *370:25 0
151 *1318:D *126:233 0.000106277
152 *30:10 *126:72 0
153 *30:12 *126:72 0
154 *67:8 *126:169 5.07209e-05
155 *74:10 *126:136 0
156 *88:14 *126:48 0.000119224
157 *98:18 *126:48 0
158 *99:51 *126:40 0.000137533
159 *102:38 *126:48 0.000858336
160 *121:10 *126:48 0.000137788
*RES
1 *1110:X *126:8 39.0979 
2 *126:8 *126:10 11.4136 
3 *126:10 *126:12 15 
4 *126:12 *1231:S 23 
5 *126:12 *126:25 13.195 
6 *126:25 *1229:S 23 
7 *126:25 *126:32 0.621429 
8 *126:32 *126:36 20.075 
9 *126:36 *126:40 22.7679 
10 *126:40 *126:48 49.6579 
11 *126:48 *126:64 36.9364 
12 *126:64 *126:72 31.9443 
13 *126:72 *1111:A 23 
14 *126:64 *1280:A 38.6214 
15 *126:48 *1277:A 23 
16 *126:40 *1274:A 23 
17 *126:36 *1225:S 41.3143 
18 *126:32 *126:115 28.6714 
19 *126:115 *126:117 5.77929 
20 *126:117 *1239:S 40.0507 
21 *126:117 *126:130 5.69643 
22 *126:130 *126:136 28.4643 
23 *126:136 *1235:S 23 
24 *126:130 *1237:S 38.8493 
25 *126:115 *1233:S 44.38 
26 *126:10 *126:169 12.18 
27 *126:169 *1223:S 40.5271 
28 *126:169 *126:180 11.4136 
29 *126:180 *126:184 16.0979 
30 *126:184 *1227:S 23 
31 *126:184 *126:199 47.6279 
32 *126:199 *126:203 21.1314 
33 *126:203 *1221:S 38 
34 *126:203 *126:216 25.295 
35 *126:216 *1215:S 23 
36 *126:216 *126:223 5.86214 
37 *126:223 *126:233 42.905 
38 *126:233 *1211:S 23.6214 
39 *126:233 *126:248 43.2986 
40 *126:248 *1268:B1 23 
41 *126:223 *1213:S 23 
42 *126:199 *1217:S 25.5479 
43 *126:180 *1219:S 48.9164 
*END

*D_NET *127 0.00766232
*CONN
*I *1259:A I *D sky130_fd_sc_hd__and3_1
*I *1265:C1 I *D sky130_fd_sc_hd__o211a_1
*I *1112:C I *D sky130_fd_sc_hd__and3b_1
*I *1125:B1 I *D sky130_fd_sc_hd__o21ai_1
*I *1272:A I *D sky130_fd_sc_hd__nand2_1
*I *1270:A I *D sky130_fd_sc_hd__nand2_1
*I *1111:Y O *D sky130_fd_sc_hd__inv_2
*CAP
1 *1259:A 0
2 *1265:C1 0
3 *1112:C 0.000109272
4 *1125:B1 0.000139674
5 *1272:A 8.74265e-05
6 *1270:A 0.000221559
7 *1111:Y 0
8 *127:70 0.000360842
9 *127:60 0.000905208
10 *127:47 0.000816348
11 *127:34 0.000476951
12 *127:10 0.00071651
13 *127:4 0.000582091
14 *1125:B1 *1114:A 1.24376e-05
15 *1125:B1 *1125:A2 0.000102971
16 *1125:B1 *129:6 0.000100477
17 *1125:B1 *129:14 0.000147656
18 *1125:B1 *216:12 8.48502e-06
19 *1270:A *1269:A1 0
20 *1270:A *1344:RESET_B 4.6318e-06
21 *1270:A *256:480 0.000118797
22 *1270:A *273:10 0
23 *1270:A *375:12 2.30292e-05
24 *1270:A *375:44 3.83778e-05
25 *1272:A *230:8 0.000271364
26 *1272:A *375:44 6.70017e-05
27 *127:10 *129:16 0
28 *127:10 *256:480 0.000236448
29 *127:34 *1114:A 4.21252e-05
30 *127:34 *256:480 0.000214412
31 *127:47 *1114:A 0.000137013
32 *127:47 *256:480 0.000166728
33 *127:60 *1114:A 7.38842e-05
34 *127:60 *1256:A 0.000150056
35 *127:60 *1348:CLK 0
36 *127:60 *219:8 0
37 *127:60 *219:19 0
38 *127:60 *236:10 0
39 *127:60 *247:21 0
40 *127:70 *1259:B 1.24298e-05
41 *127:70 *1259:C 0.000141347
42 *127:70 *1265:B1 5.3304e-05
43 *127:70 *139:61 0.000187612
44 *127:70 *219:19 1.97402e-05
45 *127:70 *219:28 9.04798e-05
46 *127:70 *219:43 2.37148e-05
47 *127:70 *223:10 6.12479e-05
48 *1112:A_N *127:60 0.000218943
49 *1256:B *127:60 0.000135557
50 *97:30 *1112:C 0.000139982
51 *98:89 *127:60 7.53805e-05
52 *98:89 *127:70 8.85496e-05
53 *99:14 *127:70 2.64616e-05
54 *105:16 *127:60 0
55 *116:29 *127:47 0
56 *116:29 *127:60 0
57 *126:72 *127:10 5.58003e-05
*RES
1 *1111:Y *127:4 23 
2 *127:4 *127:10 23.0579 
3 *127:10 *1270:A 42.8886 
4 *127:10 *1272:A 41.0036 
5 *127:4 *127:34 17.9621 
6 *127:34 *1125:B1 41.8529 
7 *127:34 *127:47 4.01857 
8 *127:47 *1112:C 39.5743 
9 *127:47 *127:60 26.7657 
10 *127:60 *127:70 38.3271 
11 *127:70 *1265:C1 23 
12 *127:60 *1259:A 23 
*END

*D_NET *128 0.001145
*CONN
*I *1113:A I *D sky130_fd_sc_hd__buf_2
*I *1112:X O *D sky130_fd_sc_hd__and3b_1
*CAP
1 *1113:A 0
2 *1112:X 0.000397845
3 *128:12 0.000397845
4 *128:12 *1333:CLK 0.000229801
5 *128:12 *373:21 9.88259e-05
6 *97:30 *128:12 2.06822e-05
*RES
1 *1112:X *128:12 45.1879 
2 *128:12 *1113:A 38 
*END

*D_NET *129 0.00547287
*CONN
*I *1125:A1 I *D sky130_fd_sc_hd__o21ai_1
*I *1276:A1 I *D sky130_fd_sc_hd__o31a_1
*I *1273:A1 I *D sky130_fd_sc_hd__o31a_1
*I *1271:A1 I *D sky130_fd_sc_hd__o21ai_1
*I *1269:A1 I *D sky130_fd_sc_hd__o21ai_1
*I *1114:Y O *D sky130_fd_sc_hd__inv_2
*CAP
1 *1125:A1 0
2 *1276:A1 0.000102465
3 *1273:A1 3.80242e-05
4 *1271:A1 1.83673e-05
5 *1269:A1 0.000328742
6 *1114:Y 2.37975e-05
7 *129:52 0.00096892
8 *129:16 0.000660089
9 *129:14 0.00131652
10 *129:6 0.000198906
11 *1269:A1 *134:24 3.08847e-05
12 *1269:A1 *213:41 0
13 *1269:A1 *375:12 9.84794e-05
14 *1269:A1 *375:44 0
15 *1271:A1 *1271:A2 1.06045e-05
16 *1271:A1 *135:15 3.01693e-05
17 *1271:A1 *214:8 8.19642e-06
18 *1273:A1 *1273:B1 2.64616e-05
19 *1276:A1 *256:459 0.000127955
20 *1276:A1 *256:465 2.11066e-05
21 *1276:A1 *355:48 0.000183473
22 *129:6 *216:12 4.69418e-05
23 *129:14 *1125:A2 7.50355e-05
24 *129:14 *216:12 0.000193285
25 *129:16 *213:41 0
26 *129:52 *231:8 8.50457e-05
27 *129:52 *355:20 0.000341923
28 *129:52 *355:48 3.78598e-05
29 *1100:B1 *129:52 4.05745e-05
30 *1125:B1 *129:6 0.000100477
31 *1125:B1 *129:14 0.000147656
32 *1270:A *1269:A1 0
33 *108:16 *129:52 5.5792e-05
34 *108:27 *129:52 0.000142678
35 *124:65 *1273:A1 1.24376e-05
36 *127:10 *129:16 0
*RES
1 *1114:Y *129:6 24.0979 
2 *129:6 *129:14 20.0543 
3 *129:14 *129:16 6.13143 
4 *129:16 *1269:A1 43.6757 
5 *129:16 *1271:A1 38.5334 
6 *129:14 *129:52 43.3193 
7 *129:52 *1273:A1 38.6214 
8 *129:52 *1276:A1 40.61 
9 *129:6 *1125:A1 23 
*END

*D_NET *130 0.00583007
*CONN
*I *1254:A1 I *D sky130_fd_sc_hd__mux2_1
*I *1279:A2 I *D sky130_fd_sc_hd__a21oi_1
*I *1124:A2 I *D sky130_fd_sc_hd__o2111a_2
*I *1115:X O *D sky130_fd_sc_hd__and4b_1
*CAP
1 *1254:A1 0
2 *1279:A2 0.000118958
3 *1124:A2 0
4 *1115:X 0
5 *130:40 0.000846629
6 *130:23 0.00179876
7 *130:12 0.000205166
8 *130:4 0.00103834
9 *1279:A2 *373:8 1.12863e-05
10 *130:12 *1125:A2 4.6318e-06
11 *130:12 *1276:B1 5.50049e-05
12 *130:12 *138:24 6.9805e-05
13 *130:12 *139:27 3.3746e-05
14 *130:23 *235:8 7.89883e-05
15 *130:40 *1114:A 0
16 *130:40 *1254:A0 5.82853e-05
17 *130:40 *1333:CLK 0.000181268
18 *130:40 *218:10 5.01469e-05
19 *130:40 *245:52 0
20 *130:40 *245:69 0.000445174
21 *130:40 *373:8 0.000138719
22 *1109:D *130:23 0.000440645
23 *1254:S *130:40 0.000100486
24 *124:38 *130:12 3.83778e-05
25 *124:81 *130:23 8.56792e-05
26 *125:8 *130:23 7.30979e-06
27 *126:72 *130:23 1.65733e-05
28 *126:72 *130:40 6.09335e-06
*RES
1 *1115:X *130:4 23 
2 *130:4 *130:12 33.2521 
3 *130:12 *1124:A2 23 
4 *130:4 *130:23 26.8796 
5 *130:23 *1279:A2 39.7711 
6 *130:23 *130:40 33.2804 
7 *130:40 *1254:A1 23 
*END

*D_NET *131 0.0023614
*CONN
*I *1433:A I *D sky130_fd_sc_hd__clkbuf_1
*I *1116:Y O *D sky130_fd_sc_hd__a2111oi_1
*CAP
1 *1433:A 0
2 *1116:Y 4.55632e-05
3 *131:16 0.000566137
4 *131:8 0.0006117
5 *131:16 *1425:A 0.000161121
6 *131:16 *234:8 2.72055e-05
7 *131:16 *246:95 7.72342e-05
8 *131:16 *256:451 0.000140927
9 *131:16 *355:48 0
10 *131:16 *367:38 1.142e-05
11 *1116:C1 *131:8 0.000185371
12 *1116:D1 *131:8 0.000185371
13 *88:14 *131:16 0.00017976
14 *98:14 *131:16 0
15 *117:12 *131:16 3.76854e-05
16 *119:20 *131:16 2.97067e-05
17 *120:10 *131:16 0.000102198
*RES
1 *1116:Y *131:8 40.0507 
2 *131:8 *131:16 27.7807 
3 *131:16 *1433:A 23 
*END

*D_NET *132 0.00161962
*CONN
*I *1118:B1 I *D sky130_fd_sc_hd__a31o_1
*I *1117:Y O *D sky130_fd_sc_hd__inv_2
*CAP
1 *1118:B1 0
2 *1117:Y 0.000378802
3 *132:10 0.000378802
4 *132:10 *1276:B1 6.68107e-05
5 *132:10 *133:10 3.73457e-05
6 *132:10 *137:37 5.95625e-06
7 *132:10 *265:10 0.000547494
8 *132:10 *377:25 2.11887e-05
9 *97:30 *132:10 8.47399e-05
10 *124:38 *132:10 0
11 *126:64 *132:10 9.84851e-05
*RES
1 *1117:Y *132:10 46.99 
2 *132:10 *1118:B1 38 
*END

*D_NET *133 0.000545959
*CONN
*I *1124:B1 I *D sky130_fd_sc_hd__o2111a_2
*I *1118:X O *D sky130_fd_sc_hd__a31o_1
*CAP
1 *1124:B1 0
2 *1118:X 0.000163661
3 *133:10 0.000163661
4 *1118:A3 *133:10 2.95423e-05
5 *97:30 *133:10 4.77164e-06
6 *116:29 *133:10 1.21972e-05
7 *124:38 *133:10 0.00013478
8 *132:10 *133:10 3.73457e-05
*RES
1 *1118:X *133:10 41.0036 
2 *133:10 *1124:B1 38 
*END

*D_NET *134 0.00253791
*CONN
*I *1269:A2 I *D sky130_fd_sc_hd__o21ai_1
*I *1121:A2 I *D sky130_fd_sc_hd__a22oi_1
*I *1119:Y O *D sky130_fd_sc_hd__nand3_1
*CAP
1 *1269:A2 0
2 *1121:A2 0
3 *1119:Y 0.000204402
4 *134:24 0.000273255
5 *134:12 0.000795868
6 *134:8 0.000727015
7 *134:12 *1121:A1 0
8 *134:12 *1344:RESET_B 0
9 *134:12 *273:10 8.06039e-05
10 *134:12 *374:12 0
11 *134:24 *1121:A1 0.000273614
12 *134:24 *1270:B 1.37232e-05
13 *134:24 *135:15 2.13216e-05
14 *134:24 *136:12 5.94125e-05
15 *134:24 *273:10 0
16 *134:24 *375:12 3.6485e-05
17 *1248:A1 *134:24 2.13216e-05
18 *1269:A1 *134:24 3.08847e-05
19 *85:8 *134:12 0
20 *112:20 *134:12 0
*RES
1 *1119:Y *134:8 41.48 
2 *134:8 *134:12 23.9486 
3 *134:12 *134:24 36.4629 
4 *134:24 *1121:A2 23 
5 *134:12 *1269:A2 23 
*END

*D_NET *135 0.00104388
*CONN
*I *1271:A2 I *D sky130_fd_sc_hd__o21ai_1
*I *1248:B1 I *D sky130_fd_sc_hd__o21ai_1
*I *1121:B1 I *D sky130_fd_sc_hd__a22oi_1
*I *1120:Y O *D sky130_fd_sc_hd__nand3b_1
*CAP
1 *1271:A2 6.10115e-05
2 *1248:B1 0
3 *1121:B1 0
4 *1120:Y 7.98981e-05
5 *135:15 0.000289929
6 *135:6 0.000308816
7 *1271:A2 *214:8 2.602e-05
8 *135:6 *1095:B1 5.3304e-05
9 *135:15 *213:41 1.5769e-05
10 *135:15 *214:8 1.32314e-05
11 *1248:A1 *135:6 4.79641e-05
12 *1248:A1 *135:15 8.58411e-05
13 *1271:A1 *1271:A2 1.06045e-05
14 *1271:A1 *135:15 3.01693e-05
15 *134:24 *135:15 2.13216e-05
*RES
1 *1120:Y *135:6 24.5743 
2 *135:6 *1121:B1 23 
3 *135:6 *135:15 4.32929 
4 *135:15 *1248:B1 23 
5 *135:15 *1271:A2 24.0979 
*END

*D_NET *136 0.00309104
*CONN
*I *1124:C1 I *D sky130_fd_sc_hd__o2111a_2
*I *1121:Y O *D sky130_fd_sc_hd__a22oi_1
*CAP
1 *1124:C1 0
2 *1121:Y 0.000137224
3 *136:12 0.000508704
4 *136:8 0.000645928
5 *136:12 *137:10 0.000152548
6 *136:12 *213:41 0.00104952
7 *1248:A1 *136:8 0.000221992
8 *115:40 *136:12 0
9 *124:38 *136:12 0.000157839
10 *124:44 *136:12 0.000157868
11 *134:24 *136:12 5.94125e-05
*RES
1 *1121:Y *136:8 40.5271 
2 *136:8 *136:12 29.2307 
3 *136:12 *1124:C1 23 
*END

*D_NET *137 0.0032567
*CONN
*I *1251:B1 I *D sky130_fd_sc_hd__a21oi_1
*I *1276:A2 I *D sky130_fd_sc_hd__o31a_1
*I *1123:A1 I *D sky130_fd_sc_hd__o21ai_1
*I *1273:A2 I *D sky130_fd_sc_hd__o31a_1
*I *1122:X O *D sky130_fd_sc_hd__a21o_1
*CAP
1 *1251:B1 0
2 *1276:A2 1.54253e-05
3 *1123:A1 0.000151121
4 *1273:A2 5.24403e-05
5 *1122:X 0.000292887
6 *137:37 0.000460246
7 *137:20 0.000477766
8 *137:14 0.000242785
9 *137:10 0.000404047
10 *1123:A1 *1276:A3 6.17437e-06
11 *1123:A1 *138:16 4.96303e-05
12 *1123:A1 *213:14 1.24376e-05
13 *1123:A1 *233:10 9.03364e-06
14 *1273:A2 *1273:B1 1.4267e-05
15 *1276:A2 *1276:B1 5.12055e-06
16 *137:14 *216:12 0.000232049
17 *137:20 *216:12 1.24376e-05
18 *137:37 *1276:A3 1.50113e-05
19 *137:37 *1276:B1 1.39317e-05
20 *137:37 *265:10 5.80966e-05
21 *1122:B1 *137:10 7.61229e-06
22 *1251:A1 *137:20 6.39633e-05
23 *1251:A1 *137:37 7.45705e-05
24 *97:30 *137:37 0
25 *116:10 *137:20 0.000217073
26 *116:10 *137:37 9.28078e-06
27 *124:44 *137:20 8.06804e-06
28 *124:65 *1273:A2 0.000109104
29 *124:65 *137:20 8.36198e-05
30 *132:10 *137:37 5.95625e-06
31 *136:12 *137:10 0.000152548
*RES
1 *1122:X *137:10 43.4686 
2 *137:10 *137:14 17.5271 
3 *137:14 *137:20 18.5836 
4 *137:20 *1273:A2 39.0979 
5 *137:20 *137:37 19.6814 
6 *137:37 *1123:A1 25.5479 
7 *137:37 *1276:A2 23.4971 
8 *137:14 *1251:B1 23 
*END

*D_NET *138 0.00193632
*CONN
*I *1124:D1 I *D sky130_fd_sc_hd__o2111a_2
*I *1123:Y O *D sky130_fd_sc_hd__o21ai_1
*CAP
1 *1124:D1 0
2 *1123:Y 0.000306944
3 *138:24 0.000181699
4 *138:16 0.000488643
5 *138:16 *1247:A 1.24376e-05
6 *138:16 *213:14 0.000227997
7 *138:16 *213:41 0.000125523
8 *138:16 *233:10 2.64616e-05
9 *138:16 *256:459 2.27289e-05
10 *138:16 *355:48 8.22421e-06
11 *138:24 *1276:A3 9.85586e-06
12 *138:24 *1276:B1 0.000221084
13 *138:24 *265:10 2.05503e-05
14 *1123:A1 *138:16 4.96303e-05
15 *1247:B *138:16 3.30634e-05
16 *97:30 *138:24 7.37167e-05
17 *124:14 *138:16 5.79559e-05
18 *130:12 *138:24 6.9805e-05
*RES
1 *1123:Y *138:16 49.4401 
2 *138:16 *138:24 27.2775 
3 *138:24 *1124:D1 23 
*END

*D_NET *139 0.00601772
*CONN
*I *1258:A1 I *D sky130_fd_sc_hd__o21ai_1
*I *1264:B1 I *D sky130_fd_sc_hd__a211o_1
*I *1266:A1 I *D sky130_fd_sc_hd__o31ai_1
*I *1267:B I *D sky130_fd_sc_hd__or4_1
*I *1261:A I *D sky130_fd_sc_hd__nor2_1
*I *1257:B I *D sky130_fd_sc_hd__or3_1
*I *1125:A2 I *D sky130_fd_sc_hd__o21ai_1
*I *1124:X O *D sky130_fd_sc_hd__o2111a_2
*CAP
1 *1258:A1 0
2 *1264:B1 0.000230404
3 *1266:A1 0.000128667
4 *1267:B 0
5 *1261:A 0
6 *1257:B 9.78511e-05
7 *1125:A2 0.000419053
8 *1124:X 0
9 *139:61 0.000366992
10 *139:46 0.000315794
11 *139:42 0.000401745
12 *139:31 0.000345126
13 *139:27 0.000701233
14 *139:6 0.000966882
15 *1125:A2 *213:41 0.000149428
16 *1125:A2 *216:12 3.92557e-05
17 *1125:A2 *256:480 0
18 *1264:B1 *1264:C1 5.5792e-05
19 *1264:B1 *225:10 6.03228e-05
20 *1266:A1 *247:48 0
21 *139:27 *1276:B1 0
22 *139:27 *247:8 0.000103647
23 *139:27 *377:25 0
24 *139:27 *377:37 0
25 *139:46 *1261:B 1.24376e-05
26 *139:46 *225:10 2.64616e-05
27 *139:61 *1261:B 4.33627e-05
28 *139:61 *219:43 0.000163256
29 *139:61 *219:58 0.000128994
30 *139:61 *223:10 6.17437e-06
31 *1112:A_N *139:27 0
32 *1125:B1 *1125:A2 0.000102971
33 *29:10 *1125:A2 0.000102971
34 *98:72 *1257:B 3.86588e-05
35 *98:89 *139:27 0
36 *102:24 *1266:A1 0
37 *102:28 *1264:B1 2.95423e-05
38 *105:16 *1264:B1 3.21919e-05
39 *105:16 *139:27 0
40 *105:16 *139:31 0.000272905
41 *105:16 *139:42 0.000166387
42 *116:29 *1125:A2 0.000142349
43 *116:29 *139:27 6.58373e-05
44 *124:38 *1125:A2 0
45 *127:70 *139:61 0.000187612
46 *129:14 *1125:A2 7.50355e-05
47 *130:12 *1125:A2 4.6318e-06
48 *130:12 *139:27 3.3746e-05
*RES
1 *1124:X *139:6 38 
2 *139:6 *1125:A2 47.7564 
3 *139:6 *139:27 25.0879 
4 *139:27 *139:31 18.6664 
5 *139:31 *1257:B 39.0979 
6 *139:31 *139:42 2.25786 
7 *139:42 *139:46 16.0979 
8 *139:46 *1261:A 23 
9 *139:46 *139:61 21.1107 
10 *139:61 *1267:B 38 
11 *139:61 *1266:A1 39.9679 
12 *139:42 *1264:B1 42.4743 
13 *139:27 *1258:A1 23 
*END

*D_NET *140 0.00346559
*CONN
*I *1130:A1 I *D sky130_fd_sc_hd__a22o_1
*I *1131:A1 I *D sky130_fd_sc_hd__o221a_2
*I *1126:Y O *D sky130_fd_sc_hd__inv_2
*CAP
1 *1130:A1 9.37148e-05
2 *1131:A1 0
3 *1126:Y 0.000420744
4 *140:28 6.23373e-05
5 *140:22 0.000463541
6 *140:14 0.000679724
7 *140:10 0.000605549
8 *1130:A1 *1130:A2 5.44329e-05
9 *1130:A1 *1130:B1 1.85803e-05
10 *140:10 *1126:A 0.00010018
11 *140:10 *254:8 0.000315852
12 *140:10 *254:10 0
13 *140:10 *254:12 0
14 *140:14 *1130:A2 0.000275875
15 *140:22 *1127:A 9.65021e-05
16 *140:22 *144:8 8.60837e-05
17 *140:22 *352:6 0.000142173
18 *140:28 *142:16 1.12863e-05
19 *140:28 *255:37 3.21567e-05
20 *140:28 *352:14 6.8582e-06
*RES
1 *1126:Y *140:10 47.0729 
2 *140:10 *140:14 18.0036 
3 *140:14 *140:22 35.4893 
4 *140:22 *140:28 31.2014 
5 *140:28 *1131:A1 23 
6 *140:14 *1130:A1 24.595 
*END

*D_NET *141 0.00285661
*CONN
*I *1130:B2 I *D sky130_fd_sc_hd__a22o_1
*I *1129:A2 I *D sky130_fd_sc_hd__o211a_1
*I *1127:Y O *D sky130_fd_sc_hd__inv_2
*CAP
1 *1130:B2 0.000262579
2 *1129:A2 0
3 *1127:Y 0.000169146
4 *141:24 0.000490841
5 *141:8 0.000922566
6 *141:24 *1129:B1 0.000227783
7 *141:24 *1129:C1 5.3444e-05
8 *141:24 *1312:CLK 0.000185368
9 *141:24 *143:10 0.000106795
10 *141:24 *253:29 0.000274132
11 *141:24 *351:12 9.54606e-05
12 *1312:D *141:24 6.84924e-05
*RES
1 *1127:Y *141:8 40.0507 
2 *141:8 *141:24 28.4643 
3 *141:24 *1129:A2 23 
4 *141:8 *1130:B2 42.64 
*END

*D_NET *142 0.00130606
*CONN
*I *1129:C1 I *D sky130_fd_sc_hd__o211a_1
*I *1128:Y O *D sky130_fd_sc_hd__inv_2
*CAP
1 *1129:C1 0.000112034
2 *1128:Y 0.000289346
3 *142:16 0.00040138
4 *1129:C1 *1201:A 5.56356e-05
5 *1129:C1 *1312:CLK 2.02872e-05
6 *1129:C1 *143:10 1.35999e-05
7 *142:16 *1127:A 5.55743e-06
8 *142:16 *1131:B2 0.000144917
9 *142:16 *145:20 6.17437e-06
10 *142:16 *145:39 0.000101877
11 *142:16 *190:14 1.46589e-05
12 *142:16 *253:12 3.78938e-05
13 *1312:D *1129:C1 3.79728e-05
14 *140:28 *142:16 1.12863e-05
15 *141:24 *1129:C1 5.3444e-05
*RES
1 *1128:Y *142:16 43.22 
2 *142:16 *1129:C1 40.5686 
*END

*D_NET *143 0.000994085
*CONN
*I *1131:B1 I *D sky130_fd_sc_hd__o221a_2
*I *1129:X O *D sky130_fd_sc_hd__o211a_1
*CAP
1 *1131:B1 6.69944e-06
2 *1129:X 0.000365323
3 *143:10 0.000372022
4 *1131:B1 *145:20 1.28818e-05
5 *1131:B1 *352:6 6.39489e-06
6 *143:10 *253:12 3.6608e-05
7 *143:10 *255:37 4.41821e-06
8 *1129:C1 *143:10 1.35999e-05
9 *93:168 *143:10 6.3585e-05
10 *93:189 *143:10 5.75756e-06
11 *141:24 *143:10 0.000106795
*RES
1 *1129:X *143:10 43.3857 
2 *143:10 *1131:B1 38.1502 
*END

*D_NET *144 0.00105994
*CONN
*I *1131:B2 I *D sky130_fd_sc_hd__o221a_2
*I *1130:X O *D sky130_fd_sc_hd__a22o_1
*CAP
1 *1131:B2 7.36637e-05
2 *1130:X 8.65436e-05
3 *144:8 0.000160207
4 *1131:B2 *1127:A 4.21921e-05
5 *1131:B2 *145:20 8.25821e-05
6 *1131:B2 *352:6 0.000273157
7 *144:8 *352:14 0.000110593
8 *140:22 *144:8 8.60837e-05
9 *142:16 *1131:B2 0.000144917
*RES
1 *1130:X *144:8 39.9057 
2 *144:8 *1131:B2 41.48 
*END

*D_NET *145 0.00787951
*CONN
*I *1134:S I *D sky130_fd_sc_hd__mux2_1
*I *1132:S I *D sky130_fd_sc_hd__mux2_1
*I *1136:S I *D sky130_fd_sc_hd__mux2_1
*I *1200:S I *D sky130_fd_sc_hd__mux2_1
*I *1202:S I *D sky130_fd_sc_hd__mux2_1
*I *1131:X O *D sky130_fd_sc_hd__o221a_2
*CAP
1 *1134:S 1.28627e-05
2 *1132:S 0
3 *1136:S 0
4 *1200:S 0
5 *1202:S 0
6 *1131:X 0
7 *145:79 0.000471036
8 *145:67 0.00143608
9 *145:56 0.000564854
10 *145:41 0.000604241
11 *145:39 0.00145852
12 *145:20 0.000320189
13 *145:4 0.000787142
14 *1134:S *243:112 4.3198e-05
15 *1134:S *350:8 5.56356e-05
16 *145:20 *1129:A1 1.59312e-05
17 *145:20 *1130:B1 5.50049e-05
18 *145:20 *1202:A0 5.50049e-05
19 *145:20 *253:6 0.000141095
20 *145:20 *254:12 4.21594e-06
21 *145:20 *255:37 8.54184e-05
22 *145:20 *352:6 2.44256e-05
23 *145:39 *1200:A0 3.24862e-05
24 *145:39 *190:14 8.64945e-05
25 *145:39 *253:29 8.29264e-05
26 *145:39 *351:12 2.04854e-05
27 *145:56 *1200:A0 0.000103726
28 *145:56 *347:25 1.13812e-05
29 *145:67 *1200:A0 5.39141e-05
30 *145:67 *1290:CLK 0.000104578
31 *145:67 *243:112 0.000548439
32 *145:67 *350:8 0.000145163
33 *145:79 *1132:A0 1.59071e-05
34 *145:79 *146:10 5.1483e-05
35 *145:79 *324:116 0.000146197
36 *1131:B1 *145:20 1.28818e-05
37 *1131:B2 *145:20 8.25821e-05
38 *32:10 *145:79 0
39 *93:189 *145:20 0.000137968
40 *142:16 *145:20 6.17437e-06
41 *142:16 *145:39 0.000101877
*RES
1 *1131:X *145:4 23 
2 *145:4 *145:20 37.7264 
3 *145:20 *1202:S 23 
4 *145:4 *145:39 37.9336 
5 *145:39 *145:41 0.849286 
6 *145:41 *1200:S 23 
7 *145:41 *145:56 41.7036 
8 *145:56 *1136:S 23 
9 *145:39 *145:67 16.385 
10 *145:67 *145:79 38.12 
11 *145:79 *1132:S 23 
12 *145:67 *1134:S 23.6214 
*END

*D_NET *146 0.000389943
*CONN
*I *1133:A I *D sky130_fd_sc_hd__clkbuf_1
*I *1132:X O *D sky130_fd_sc_hd__mux2_1
*CAP
1 *1133:A 0
2 *1132:X 0.000110328
3 *146:10 0.000110328
4 *146:10 *256:537 8.55155e-05
5 *146:10 *324:116 3.22879e-05
6 *145:79 *146:10 5.1483e-05
*RES
1 *1132:X *146:10 40.8793 
2 *146:10 *1133:A 38 
*END

*D_NET *147 0.0013509
*CONN
*I *1135:A I *D sky130_fd_sc_hd__clkbuf_1
*I *1134:X O *D sky130_fd_sc_hd__mux2_1
*CAP
1 *1135:A 8.20521e-05
2 *1134:X 0.000122374
3 *147:8 0.000204426
4 *1135:A *1132:A0 0.000187069
5 *147:8 *325:101 0.000377866
6 *32:10 *147:8 0.000377111
*RES
1 *1134:X *147:8 43.075 
2 *147:8 *1135:A 40.0507 
*END

*D_NET *148 0.000686725
*CONN
*I *1137:A I *D sky130_fd_sc_hd__clkbuf_1
*I *1136:X O *D sky130_fd_sc_hd__mux2_1
*CAP
1 *1137:A 0
2 *1136:X 0.000213976
3 *148:8 0.000213976
4 *148:8 *1312:RESET_B 4.83192e-05
5 *148:8 *256:537 3.50862e-06
6 *148:8 *256:551 2.56091e-05
7 *148:8 *299:18 8.36198e-05
8 *33:8 *148:8 9.77167e-05
*RES
1 *1136:X *148:8 43.075 
2 *148:8 *1137:A 38 
*END

*D_NET *149 0.00115876
*CONN
*I *1143:A1 I *D sky130_fd_sc_hd__o221a_2
*I *1142:A1 I *D sky130_fd_sc_hd__a22o_1
*I *1138:Y O *D sky130_fd_sc_hd__inv_2
*CAP
1 *1143:A1 3.73824e-05
2 *1142:A1 0.000400422
3 *1138:Y 7.78913e-05
4 *149:10 0.000437805
5 *149:8 7.78913e-05
6 *1142:A1 *1143:A2 6.89583e-06
7 *1142:A1 *1143:B1 6.39489e-06
8 *1142:A1 *1143:B2 3.80623e-05
9 *149:8 *256:37 2.14486e-05
10 *1143:C1 *1142:A1 5.45644e-05
*RES
1 *1138:Y *149:8 39.2014 
2 *149:8 *149:10 15 
3 *149:10 *1142:A1 28.4064 
4 *149:10 *1143:A1 23.8493 
*END

*D_NET *150 0.00144186
*CONN
*I *1141:A1 I *D sky130_fd_sc_hd__o211a_1
*I *1142:B1 I *D sky130_fd_sc_hd__a22o_1
*I *1139:Y O *D sky130_fd_sc_hd__inv_2
*CAP
1 *1141:A1 1.45045e-05
2 *1142:B1 0
3 *1139:Y 0.000135375
4 *150:20 0.000279648
5 *150:6 0.000429528
6 *1141:A1 *1141:A2 1.12796e-05
7 *1141:A1 *259:10 7.93919e-06
8 *150:6 *1146:A1 0.000167286
9 *150:6 *152:10 2.95423e-05
10 *150:6 *154:27 1.24376e-05
11 *150:20 *1146:A1 1.88391e-05
12 *150:20 *259:10 0.00015512
13 *150:20 *270:14 0.000103229
14 *150:20 *281:27 5.75756e-06
15 *93:53 *150:20 6.63618e-05
16 *93:66 *150:20 5.01232e-06
*RES
1 *1139:Y *150:6 26.48 
2 *150:6 *150:20 35.9243 
3 *150:20 *1142:B1 23 
4 *150:6 *1141:A1 23.4971 
*END

*D_NET *151 0.000433571
*CONN
*I *1141:C1 I *D sky130_fd_sc_hd__o211a_1
*I *1140:Y O *D sky130_fd_sc_hd__inv_2
*CAP
1 *1141:C1 0
2 *1140:Y 0.000139203
3 *151:10 0.000139203
4 *151:10 *270:14 1.74126e-05
5 *93:53 *151:10 0.000137754
*RES
1 *1140:Y *151:10 40.5271 
2 *151:10 *1141:C1 38 
*END

*D_NET *152 0.000535777
*CONN
*I *1143:B1 I *D sky130_fd_sc_hd__o221a_2
*I *1141:X O *D sky130_fd_sc_hd__o211a_1
*CAP
1 *1143:B1 6.69944e-06
2 *1141:X 0.000156717
3 *152:10 0.000163416
4 *1143:B1 *1143:B2 1.28818e-05
5 *152:10 *256:37 0.000160125
6 *1142:A1 *1143:B1 6.39489e-06
7 *150:6 *152:10 2.95423e-05
*RES
1 *1141:X *152:10 40.8793 
2 *152:10 *1143:B1 38.1502 
*END

*D_NET *153 0.000399198
*CONN
*I *1143:B2 I *D sky130_fd_sc_hd__o221a_2
*I *1142:X O *D sky130_fd_sc_hd__a22o_1
*CAP
1 *1143:B2 8.39562e-05
2 *1142:X 8.39562e-05
3 *1143:B2 *1143:A2 0.000111144
4 *1142:A1 *1143:B2 3.80623e-05
5 *1143:B1 *1143:B2 1.28818e-05
6 *1143:C1 *1143:B2 6.91972e-05
*RES
1 *1142:X *1143:B2 48.5479 
*END

*D_NET *154 0.0066091
*CONN
*I *1164:S I *D sky130_fd_sc_hd__mux2_1
*I *1162:S I *D sky130_fd_sc_hd__mux2_1
*I *1160:S I *D sky130_fd_sc_hd__mux2_1
*I *1146:S I *D sky130_fd_sc_hd__mux2_1
*I *1144:S I *D sky130_fd_sc_hd__mux2_1
*I *1143:X O *D sky130_fd_sc_hd__o221a_2
*CAP
1 *1164:S 6.20425e-05
2 *1162:S 6.48606e-05
3 *1160:S 0.000268861
4 *1146:S 0
5 *1144:S 0.000550583
6 *1143:X 7.2829e-05
7 *154:38 0.000519786
8 *154:34 0.00128946
9 *154:27 0.00130988
10 *154:8 0.000891949
11 *1144:S *240:120 0
12 *1144:S *256:23 9.76358e-05
13 *1160:S *1160:A0 2.46906e-05
14 *1160:S *1160:A1 0.000101764
15 *1160:S *324:10 0
16 *1164:S *1164:A1 1.56542e-05
17 *1164:S *275:24 0.000102389
18 *154:27 *1139:A 0.00022403
19 *154:27 *1146:A1 9.86777e-06
20 *154:34 *1139:A 0.000189176
21 *154:34 *1164:A1 0.000154601
22 *154:34 *1402:A 0.000229801
23 *154:34 *167:10 3.26241e-05
24 *154:34 *325:16 2.83509e-05
25 *41:10 *1160:S 0
26 *93:10 *1144:S 0.000355822
27 *150:6 *154:27 1.24376e-05
*RES
1 *1143:X *154:8 39.2014 
2 *154:8 *1144:S 48.44 
3 *154:8 *154:27 20.9036 
4 *154:27 *1146:S 23 
5 *154:27 *154:34 19.6786 
6 *154:34 *154:38 18.3143 
7 *154:38 *1160:S 42.9507 
8 *154:38 *1162:S 39.0979 
9 *154:34 *1164:S 24.5743 
*END

*D_NET *155 0.000446592
*CONN
*I *1145:A I *D sky130_fd_sc_hd__clkbuf_1
*I *1144:X O *D sky130_fd_sc_hd__mux2_1
*CAP
1 *1145:A 0
2 *1144:X 0.000174212
3 *155:10 0.000174212
4 *34:8 *155:10 4.11274e-05
5 *93:6 *155:10 5.70419e-05
*RES
1 *1144:X *155:10 41.3557 
2 *155:10 *1145:A 38 
*END

*D_NET *156 0.00157202
*CONN
*I *1147:A I *D sky130_fd_sc_hd__clkbuf_1
*I *1146:X O *D sky130_fd_sc_hd__mux2_1
*CAP
1 *1147:A 5.32135e-05
2 *1146:X 0.000422663
3 *156:10 0.000475876
4 *1147:A *327:29 5.5792e-05
5 *156:10 *1146:A1 0.000450337
6 *156:10 *256:23 2.81425e-05
7 *156:10 *256:37 3.31053e-05
8 *156:10 *259:16 4.04496e-05
9 *1292:D *1147:A 1.24376e-05
*RES
1 *1146:X *156:10 44.815 
2 *156:10 *1147:A 39.0979 
*END

*D_NET *157 0.00158234
*CONN
*I *1153:A1 I *D sky130_fd_sc_hd__a22o_1
*I *1154:A1 I *D sky130_fd_sc_hd__o221a_2
*I *1149:Y O *D sky130_fd_sc_hd__inv_2
*CAP
1 *1153:A1 6.09986e-05
2 *1154:A1 0
3 *1149:Y 8.69059e-05
4 *157:16 0.00016058
5 *157:6 0.000308484
6 *1153:A1 *1153:A2 3.28357e-06
7 *1153:A1 *1153:B1 5.5792e-05
8 *1153:A1 *1153:B2 3.86731e-05
9 *1153:A1 *240:51 5.3304e-05
10 *1153:A1 *314:18 2.02872e-05
11 *157:6 *161:10 0.000232541
12 *157:6 *240:51 0.000274234
13 *157:16 *1153:B1 1.12268e-05
14 *157:16 *1153:B2 5.82853e-05
15 *157:16 *161:10 6.63728e-05
16 *157:16 *162:12 5.91105e-05
17 *157:16 *162:18 8.57485e-05
18 *157:16 *314:18 6.5117e-06
*RES
1 *1149:Y *157:6 26.48 
2 *157:6 *157:16 33.8529 
3 *157:16 *1154:A1 23 
4 *157:6 *1153:A1 24.9471 
*END

*D_NET *158 0.00180032
*CONN
*I *1152:A1 I *D sky130_fd_sc_hd__o211a_1
*I *1153:B1 I *D sky130_fd_sc_hd__a22o_1
*I *1150:Y O *D sky130_fd_sc_hd__inv_2
*CAP
1 *1152:A1 0
2 *1153:B1 0.000132018
3 *1150:Y 0.000212184
4 *158:12 0.000132018
5 *158:10 0.000212184
6 *1153:B1 *1152:A2 1.12796e-05
7 *1153:B1 *1152:B1 1.34966e-05
8 *1153:B1 *1153:B2 0.000148252
9 *1153:B1 *314:18 0.00026808
10 *158:10 *160:10 0.000167522
11 *158:10 *240:149 3.6941e-05
12 *158:10 *256:76 5.58003e-05
13 *158:10 *314:10 4.60997e-05
14 *158:10 *314:18 5.0268e-05
15 *1153:A1 *1153:B1 5.5792e-05
16 *93:93 *158:10 0.000247158
17 *157:16 *1153:B1 1.12268e-05
*RES
1 *1150:Y *158:10 43.6964 
2 *158:10 *158:12 15 
3 *158:12 *1153:B1 27.4536 
4 *158:12 *1152:A1 23 
*END

*D_NET *159 0.000207667
*CONN
*I *1152:C1 I *D sky130_fd_sc_hd__o211a_1
*I *1151:Y O *D sky130_fd_sc_hd__inv_2
*CAP
1 *1152:C1 6.56644e-05
2 *1151:Y 6.56644e-05
3 *1152:C1 *1152:A2 4.69082e-06
4 *1152:C1 *1152:B1 1.31697e-05
5 *1152:C1 *292:8 5.29205e-05
6 *1152:C1 *303:27 5.55743e-06
*RES
1 *1151:Y *1152:C1 47.595 
*END

*D_NET *160 0.000819793
*CONN
*I *1154:B1 I *D sky130_fd_sc_hd__o221a_2
*I *1152:X O *D sky130_fd_sc_hd__o211a_1
*CAP
1 *1154:B1 5.62361e-06
2 *1152:X 0.000201107
3 *160:10 0.000206731
4 *1154:B1 *1157:S 1.28818e-05
5 *160:10 *1153:B2 5.29205e-05
6 *160:10 *314:18 0.000160125
7 *93:114 *1154:B1 1.28818e-05
8 *158:10 *160:10 0.000167522
*RES
1 *1152:X *160:10 41.3557 
2 *160:10 *1154:B1 38.1502 
*END

*D_NET *161 0.00137907
*CONN
*I *1154:B2 I *D sky130_fd_sc_hd__o221a_2
*I *1153:X O *D sky130_fd_sc_hd__a22o_1
*CAP
1 *1154:B2 0.000130735
2 *1153:X 0.000226615
3 *161:10 0.000357349
4 *1154:B2 *1154:A2 2.95526e-05
5 *1154:B2 *1157:S 0.000136666
6 *1154:B2 *162:12 0.000138859
7 *161:10 *256:60 5.0518e-05
8 *93:114 *1154:B2 9.8592e-06
9 *157:6 *161:10 0.000232541
10 *157:16 *161:10 6.63728e-05
*RES
1 *1153:X *161:10 42.0807 
2 *161:10 *1154:B2 41.0243 
*END

*D_NET *162 0.00934845
*CONN
*I *1179:S I *D sky130_fd_sc_hd__mux2_1
*I *1181:S I *D sky130_fd_sc_hd__mux2_1
*I *1177:S I *D sky130_fd_sc_hd__mux2_1
*I *1157:S I *D sky130_fd_sc_hd__mux2_1
*I *1155:S I *D sky130_fd_sc_hd__mux2_1
*I *1154:X O *D sky130_fd_sc_hd__o221a_2
*CAP
1 *1179:S 0.000161247
2 *1181:S 0.000256528
3 *1177:S 0
4 *1157:S 0.000300085
5 *1155:S 0
6 *1154:X 2.18824e-05
7 *162:55 0.000704727
8 *162:44 0.00161406
9 *162:18 0.000722191
10 *162:12 0.00110262
11 *162:6 0.00142934
12 *1157:S *1157:A0 7.61229e-06
13 *1157:S *303:27 4.98295e-05
14 *1179:S *1179:A0 9.64182e-05
15 *1179:S *1179:A1 2.93747e-05
16 *1179:S *1328:CLK 0.000433252
17 *1179:S *1375:A 3.22879e-05
18 *1179:S *290:19 1.21972e-05
19 *1181:S *256:639 0
20 *1181:S *256:659 0
21 *1181:S *256:673 0
22 *162:12 *314:18 2.37243e-05
23 *162:18 *1294:RESET_B 0
24 *162:18 *240:12 0
25 *162:18 *240:38 0
26 *162:18 *240:51 0
27 *162:18 *240:149 0
28 *162:18 *268:8 9.84851e-05
29 *162:18 *314:18 9.69942e-05
30 *162:18 *329:23 4.6318e-06
31 *162:44 *1177:A0 1.76213e-05
32 *162:44 *1296:RESET_B 0.000134173
33 *162:44 *324:74 0.000170173
34 *162:44 *335:6 4.98295e-05
35 *162:44 *335:27 0.00014121
36 *162:55 *1177:A0 7.48414e-05
37 *162:55 *1327:RESET_B 0
38 *162:55 *290:19 8.62876e-05
39 *162:55 *362:14 0
40 *1154:B1 *1157:S 1.28818e-05
41 *1154:B2 *1157:S 0.000136666
42 *1154:B2 *162:12 0.000138859
43 *93:93 *162:18 0
44 *93:114 *1157:S 4.23916e-05
45 *93:114 *162:12 7.48516e-05
46 *93:114 *162:44 4.83798e-05
47 *93:218 *162:44 1.83278e-05
48 *126:10 *1181:S 0.000428672
49 *126:10 *162:55 0.000237053
50 *126:169 *162:55 0.000193873
51 *157:16 *162:12 5.91105e-05
52 *157:16 *162:18 8.57485e-05
*RES
1 *1154:X *162:6 23.4971 
2 *162:6 *162:12 17.4236 
3 *162:12 *162:18 28.7129 
4 *162:18 *1155:S 23 
5 *162:12 *1157:S 42.9507 
6 *162:6 *162:44 21.5221 
7 *162:44 *1177:S 23 
8 *162:44 *162:55 22.3536 
9 *162:55 *1181:S 43.7793 
10 *162:55 *1179:S 42.9093 
*END

*D_NET *163 0.000775569
*CONN
*I *1156:A I *D sky130_fd_sc_hd__clkbuf_1
*I *1155:X O *D sky130_fd_sc_hd__mux2_1
*CAP
1 *1156:A 0
2 *1155:X 0.000311861
3 *163:10 0.000311861
4 *163:10 *1151:A 0
5 *163:10 *240:27 0
6 *163:10 *281:14 5.67058e-05
7 *163:10 *281:27 2.4754e-05
8 *37:8 *163:10 7.03869e-05
9 *93:93 *163:10 0
*RES
1 *1155:X *163:10 44.1729 
2 *163:10 *1156:A 38 
*END

*D_NET *164 0.000248791
*CONN
*I *1158:A I *D sky130_fd_sc_hd__clkbuf_1
*I *1157:X O *D sky130_fd_sc_hd__mux2_1
*CAP
1 *1158:A 9.77317e-05
2 *1157:X 9.77317e-05
3 *1158:A *303:6 5.33272e-05
*RES
1 *1157:X *1158:A 48.4236 
*END

*D_NET *165 0.000197355
*CONN
*I *1161:A I *D sky130_fd_sc_hd__clkbuf_1
*I *1160:X O *D sky130_fd_sc_hd__mux2_1
*CAP
1 *1161:A 5.37321e-05
2 *1160:X 5.37321e-05
3 *1161:A *1160:A1 8.9891e-05
*RES
1 *1160:X *1161:A 47.4707 
*END

*D_NET *166 0.000328854
*CONN
*I *1163:A I *D sky130_fd_sc_hd__clkbuf_1
*I *1162:X O *D sky130_fd_sc_hd__mux2_1
*CAP
1 *1163:A 8.0642e-05
2 *1162:X 8.0642e-05
3 *1163:A *1162:A0 0.000146822
4 *41:10 *1163:A 2.07484e-05
*RES
1 *1162:X *1163:A 48.4236 
*END

*D_NET *167 0.000408574
*CONN
*I *1165:A I *D sky130_fd_sc_hd__clkbuf_1
*I *1164:X O *D sky130_fd_sc_hd__mux2_1
*CAP
1 *1165:A 0
2 *1164:X 0.000145221
3 *167:10 0.000145221
4 *167:10 *1164:A1 7.97499e-05
5 *167:10 *326:76 5.75756e-06
6 *154:34 *167:10 3.26241e-05
*RES
1 *1164:X *167:10 40.8793 
2 *167:10 *1165:A 38 
*END

*D_NET *168 0.00134917
*CONN
*I *1171:A1 I *D sky130_fd_sc_hd__o221a_2
*I *1170:A1 I *D sky130_fd_sc_hd__a22o_1
*I *1166:Y O *D sky130_fd_sc_hd__inv_2
*CAP
1 *1171:A1 0
2 *1170:A1 0.000165521
3 *1166:Y 0
4 *168:27 0.00027075
5 *168:4 0.000436271
6 *1170:A1 *1170:A2 0.000184607
7 *1170:A1 *320:34 1.59071e-05
8 *168:27 *1166:A 2.02872e-05
9 *168:27 *1170:A2 9.41704e-05
10 *168:27 *1171:A2 0.000111276
11 *168:27 *1171:B2 1.37232e-05
12 *168:27 *239:74 3.66555e-05
*RES
1 *1166:Y *168:4 23 
2 *168:4 *1170:A1 26.1693 
3 *168:4 *168:27 34.7229 
4 *168:27 *1171:A1 23 
*END

*D_NET *169 0.00149687
*CONN
*I *1170:B1 I *D sky130_fd_sc_hd__a22o_1
*I *1169:A1 I *D sky130_fd_sc_hd__o211a_1
*I *1167:Y O *D sky130_fd_sc_hd__inv_2
*CAP
1 *1170:B1 0.000203476
2 *1169:A1 5.48628e-05
3 *1167:Y 0.000257215
4 *169:12 0.000258338
5 *169:10 0.000257215
6 *1169:A1 *320:15 5.14826e-05
7 *1170:B1 *1169:A2 3.28357e-06
8 *1170:B1 *320:15 5.92537e-05
9 *1170:B1 *320:34 2.57686e-05
10 *169:10 *1168:A 4.6318e-06
11 *169:10 *1401:A 0.000168388
12 *169:10 *242:36 0.000135616
13 *169:10 *256:112 1.73399e-05
*RES
1 *1167:Y *169:10 43.3443 
2 *169:10 *169:12 15 
3 *169:12 *1169:A1 24.0979 
4 *169:12 *1170:B1 26.5007 
*END

*D_NET *170 0.00154042
*CONN
*I *1169:C1 I *D sky130_fd_sc_hd__o211a_1
*I *1168:Y O *D sky130_fd_sc_hd__inv_2
*CAP
1 *1169:C1 0
2 *1168:Y 0.000528733
3 *170:10 0.000528733
4 *170:10 *1168:A 1.76557e-05
5 *170:10 *1301:CLK 0.000266289
6 *170:10 *242:8 0.000135493
7 *170:10 *317:8 6.35124e-05
8 *170:10 *319:22 0
*RES
1 *1168:Y *170:10 48.5436 
2 *170:10 *1169:C1 38 
*END

*D_NET *171 0.00209748
*CONN
*I *1171:B1 I *D sky130_fd_sc_hd__o221a_2
*I *1169:X O *D sky130_fd_sc_hd__o211a_1
*CAP
1 *1171:B1 2.23951e-05
2 *1169:X 0.000564765
3 *171:10 0.00058716
4 *1171:B1 *1171:B2 5.28598e-05
5 *1171:B1 *239:74 2.9113e-05
6 *171:10 *172:10 8.50366e-05
7 *171:10 *239:74 7.69256e-06
8 *171:10 *249:16 8.93364e-06
9 *171:10 *320:15 0.000145171
10 *171:10 *320:34 0.000594358
11 *93:139 *171:10 0
*RES
1 *1169:X *171:10 47.0521 
2 *171:10 *1171:B1 38.6162 
*END

*D_NET *172 0.000701682
*CONN
*I *1171:B2 I *D sky130_fd_sc_hd__o221a_2
*I *1170:X O *D sky130_fd_sc_hd__a22o_1
*CAP
1 *1171:B2 0.000129866
2 *1170:X 0.000126305
3 *172:10 0.000256171
4 *1171:B2 *239:74 2.69674e-05
5 *1171:B1 *1171:B2 5.28598e-05
6 *1171:C1 *1171:B2 1.07531e-05
7 *168:27 *1171:B2 1.37232e-05
8 *171:10 *172:10 8.50366e-05
*RES
1 *1170:X *172:10 39.8229 
2 *172:10 *1171:B2 40.5686 
*END

*D_NET *173 0.0082197
*CONN
*I *1198:S I *D sky130_fd_sc_hd__mux2_1
*I *1196:S I *D sky130_fd_sc_hd__mux2_1
*I *1194:S I *D sky130_fd_sc_hd__mux2_1
*I *1174:S I *D sky130_fd_sc_hd__mux2_1
*I *1172:S I *D sky130_fd_sc_hd__mux2_1
*I *1171:X O *D sky130_fd_sc_hd__o221a_2
*CAP
1 *1198:S 0.000104486
2 *1196:S 0.00022749
3 *1194:S 0
4 *1174:S 0
5 *1172:S 0.000485934
6 *1171:X 0
7 *173:40 0.000370744
8 *173:34 0.000660069
9 *173:30 0.000816709
10 *173:23 0.000238947
11 *173:8 0.00110758
12 *173:4 0.00103309
13 *1172:S *1172:A0 5.83407e-05
14 *1172:S *242:36 7.92108e-05
15 *1196:S *1196:A0 2.4754e-05
16 *1196:S *188:10 4.2062e-05
17 *1196:S *325:76 0.000269775
18 *1198:S *1198:A0 3.16665e-05
19 *173:8 *239:74 0.000407055
20 *173:23 *239:74 1.68817e-05
21 *173:23 *320:34 5.79559e-05
22 *173:30 *189:10 3.61521e-05
23 *173:30 *239:74 0.000100061
24 *173:34 *324:95 0.000135911
25 *173:34 *326:35 0.000127598
26 *173:40 *1194:A1 0.000174889
27 *173:40 *324:74 6.2088e-05
28 *173:40 *324:95 0.000605967
29 *173:40 *326:35 0.000663917
30 *1171:C1 *1172:S 5.3304e-05
31 *1171:C1 *173:8 2.96003e-05
32 *93:120 *173:23 0.00019747
*RES
1 *1171:X *173:4 23 
2 *173:4 *173:8 6.235 
3 *173:8 *1172:S 31.7207 
4 *173:8 *173:23 34.1843 
5 *173:23 *1174:S 23 
6 *173:4 *173:30 8.72071 
7 *173:30 *173:34 16.9057 
8 *173:34 *173:40 27.4286 
9 *173:40 *1194:S 23 
10 *173:34 *1196:S 42.9093 
11 *173:30 *1198:S 24.9471 
*END

*D_NET *174 0.000721476
*CONN
*I *1173:A I *D sky130_fd_sc_hd__clkbuf_1
*I *1172:X O *D sky130_fd_sc_hd__mux2_1
*CAP
1 *1173:A 7.35678e-05
2 *1172:X 0.000221408
3 *174:12 0.000294976
4 *1173:A *1168:A 0
5 *1173:A *1301:CLK 0
6 *174:12 *319:8 7.59039e-05
7 *43:10 *174:12 5.56203e-05
*RES
1 *1172:X *174:12 42.785 
2 *174:12 *1173:A 39.4707 
*END

*D_NET *175 0.00122752
*CONN
*I *1175:A I *D sky130_fd_sc_hd__clkbuf_1
*I *1174:X O *D sky130_fd_sc_hd__mux2_1
*CAP
1 *1175:A 0.000278564
2 *1174:X 0.00017736
3 *175:8 0.000455924
4 *1175:A *314:8 0.000123934
5 *175:8 *1168:A 0
6 *175:8 *256:86 0
7 *175:8 *340:16 4.08641e-05
8 *93:120 *175:8 0.000150878
*RES
1 *1174:X *175:8 42.0186 
2 *175:8 *1175:A 43.6343 
*END

*D_NET *176 0.000982762
*CONN
*I *1178:A I *D sky130_fd_sc_hd__clkbuf_1
*I *1177:X O *D sky130_fd_sc_hd__mux2_1
*CAP
1 *1178:A 0
2 *1177:X 0.000313725
3 *176:10 0.000313725
4 *176:10 *1303:RESET_B 0.000278083
5 *176:10 *324:74 5.07687e-05
6 *176:10 *325:61 2.64609e-05
*RES
1 *1177:X *176:10 44.6493 
2 *176:10 *1178:A 38 
*END

*D_NET *177 0.000370307
*CONN
*I *1180:A I *D sky130_fd_sc_hd__clkbuf_1
*I *1179:X O *D sky130_fd_sc_hd__mux2_1
*CAP
1 *1180:A 0.000185153
2 *1179:X 0.000185153
3 *1180:A *1328:CLK 0
*RES
1 *1179:X *1180:A 49.3764 
*END

*D_NET *178 0.00141365
*CONN
*I *1182:A I *D sky130_fd_sc_hd__clkbuf_1
*I *1181:X O *D sky130_fd_sc_hd__mux2_1
*CAP
1 *1182:A 0
2 *1181:X 0.000352505
3 *178:10 0.000352505
4 *178:10 *1181:A1 5.50106e-05
5 *178:10 *324:68 0.000277127
6 *178:10 *326:72 9.58714e-05
7 *126:10 *178:10 0.000280635
*RES
1 *1181:X *178:10 47.1143 
2 *178:10 *1182:A 38 
*END

*D_NET *179 0.00107313
*CONN
*I *1187:A1 I *D sky130_fd_sc_hd__a22o_1
*I *1188:A1 I *D sky130_fd_sc_hd__o221a_2
*I *1183:Y O *D sky130_fd_sc_hd__inv_2
*CAP
1 *1187:A1 0
2 *1188:A1 8.55762e-05
3 *1183:Y 9.02665e-05
4 *179:8 0.000175843
5 *1188:A1 *1187:A2 0.000282484
6 *1188:A1 *1187:B1 0.000141682
7 *1188:A1 *183:8 9.78729e-06
8 *179:8 *1187:A2 5.44267e-05
9 *179:8 *1187:B1 3.85196e-05
10 *179:8 *183:8 0.000146822
11 *179:8 *184:34 4.77234e-05
*RES
1 *1183:Y *179:8 26.3764 
2 *179:8 *1188:A1 26.5007 
3 *179:8 *1187:A1 23 
*END

*D_NET *180 0.00277439
*CONN
*I *1186:A2 I *D sky130_fd_sc_hd__o211a_1
*I *1187:B2 I *D sky130_fd_sc_hd__a22o_1
*I *1184:Y O *D sky130_fd_sc_hd__inv_2
*CAP
1 *1186:A2 0
2 *1187:B2 0
3 *1184:Y 0.000379829
4 *180:28 0.000698856
5 *180:12 0.000698856
6 *180:10 0.000379829
7 *180:10 *1189:S 0.000166513
8 *180:10 *251:8 2.65879e-05
9 *180:10 *251:15 1.79538e-05
10 *180:10 *251:23 5.26101e-05
11 *180:10 *346:14 9.36522e-05
12 *180:28 *1185:A 5.41385e-05
13 *180:28 *1186:B1 3.91386e-05
14 *180:28 *1188:A2 0
15 *180:28 *181:10 3.23006e-05
16 *180:28 *182:10 0
17 *180:28 *242:75 7.7086e-05
18 *180:28 *251:23 5.70419e-05
*RES
1 *1184:Y *180:10 44.6907 
2 *180:10 *180:12 15 
3 *180:12 *180:28 41.6414 
4 *180:28 *1187:B2 23 
5 *180:12 *1186:A2 23 
*END

*D_NET *181 0.000854499
*CONN
*I *1186:C1 I *D sky130_fd_sc_hd__o211a_1
*I *1185:Y O *D sky130_fd_sc_hd__inv_2
*CAP
1 *1186:C1 0
2 *1185:Y 0.000299457
3 *181:10 0.000299457
4 *181:10 *1185:A 2.93845e-05
5 *181:10 *1186:B1 2.18162e-05
6 *181:10 *182:10 9.84851e-05
7 *181:10 *250:8 1.94693e-05
8 *181:10 *251:23 5.41288e-05
9 *180:28 *181:10 3.23006e-05
*RES
1 *1185:Y *181:10 28.7793 
2 *181:10 *1186:C1 23 
*END

*D_NET *182 0.000601809
*CONN
*I *1188:B1 I *D sky130_fd_sc_hd__o221a_2
*I *1186:X O *D sky130_fd_sc_hd__o211a_1
*CAP
1 *1188:B1 8.33971e-06
2 *1186:X 0.000185173
3 *182:10 0.000193513
4 *1188:B1 *1187:B1 6.39489e-06
5 *1188:B1 *184:12 3.84478e-06
6 *182:10 *1188:A2 1.83564e-05
7 *93:147 *182:10 5.21127e-05
8 *93:164 *182:10 3.55887e-05
9 *180:28 *182:10 0
10 *181:10 *182:10 9.84851e-05
*RES
1 *1186:X *182:10 41.3557 
2 *182:10 *1188:B1 38.1502 
*END

*D_NET *183 0.00126358
*CONN
*I *1188:B2 I *D sky130_fd_sc_hd__o221a_2
*I *1187:X O *D sky130_fd_sc_hd__a22o_1
*CAP
1 *1188:B2 0
2 *1187:X 0.000117455
3 *183:8 0.000117455
4 *183:8 *1187:B1 0.00031373
5 *183:8 *184:12 0.000187129
6 *183:8 *184:34 0.000357479
7 *1188:A1 *183:8 9.78729e-06
8 *1188:C1 *183:8 1.37232e-05
9 *179:8 *183:8 0.000146822
*RES
1 *1187:X *183:8 29.3593 
2 *183:8 *1188:B2 23 
*END

*D_NET *184 0.00699214
*CONN
*I *1205:S I *D sky130_fd_sc_hd__mux2_1
*I *1209:S I *D sky130_fd_sc_hd__mux2_1
*I *1207:S I *D sky130_fd_sc_hd__mux2_1
*I *1191:S I *D sky130_fd_sc_hd__mux2_1
*I *1189:S I *D sky130_fd_sc_hd__mux2_1
*I *1188:X O *D sky130_fd_sc_hd__o221a_2
*CAP
1 *1205:S 0
2 *1209:S 3.76283e-05
3 *1207:S 0.000229318
4 *1191:S 0
5 *1189:S 0.000321678
6 *1188:X 0
7 *184:66 0.00029497
8 *184:49 0.000748127
9 *184:34 0.0013552
10 *184:12 0.000788603
11 *184:4 0.00117728
12 *1189:S *1185:A 0
13 *1189:S *250:14 0.000114083
14 *1189:S *251:23 0
15 *1207:S *1308:RESET_B 0.000102638
16 *1207:S *256:126 0.000279506
17 *1207:S *277:20 5.5792e-05
18 *1209:S *1209:A1 1.14154e-05
19 *184:12 *1187:B1 1.29013e-05
20 *184:12 *251:15 2.72257e-05
21 *184:34 *1308:RESET_B 0.000195238
22 *184:49 *1209:A1 2.30292e-05
23 *184:49 *194:10 1.73399e-05
24 *184:66 *1205:A0 0.000100477
25 *184:66 *1205:A1 5.5792e-05
26 *184:66 *1209:A1 4.93223e-05
27 *184:66 *324:116 0.000145854
28 *184:66 *326:48 2.1431e-05
29 *184:66 *343:10 5.31444e-05
30 *1188:B1 *184:12 3.84478e-06
31 *1188:C1 *184:12 1.14534e-05
32 *93:147 *1189:S 0
33 *179:8 *184:34 4.77234e-05
34 *180:10 *1189:S 0.000166513
35 *183:8 *184:12 0.000187129
36 *183:8 *184:34 0.000357479
*RES
1 *1188:X *184:4 23 
2 *184:4 *184:12 21.8564 
3 *184:12 *1189:S 43.7793 
4 *184:12 *1191:S 38 
5 *184:4 *184:34 26.3307 
6 *184:34 *1207:S 43.6964 
7 *184:34 *184:49 21.815 
8 *184:49 *1209:S 23.8493 
9 *184:49 *184:66 36.235 
10 *184:66 *1205:S 23 
*END

*D_NET *185 0.000636357
*CONN
*I *1190:A I *D sky130_fd_sc_hd__clkbuf_1
*I *1189:X O *D sky130_fd_sc_hd__mux2_1
*CAP
1 *1190:A 5.80787e-05
2 *1189:X 0.000230957
3 *185:8 0.000289036
4 *1190:A *249:12 5.82853e-05
*RES
1 *1189:X *185:8 42.0186 
2 *185:8 *1190:A 39.4707 
*END

*D_NET *186 0.000707728
*CONN
*I *1192:A I *D sky130_fd_sc_hd__clkbuf_1
*I *1191:X O *D sky130_fd_sc_hd__mux2_1
*CAP
1 *1192:A 0
2 *1191:X 0.000305079
3 *186:10 0.000305079
4 *186:10 *242:85 0
5 *186:10 *251:8 5.67058e-05
6 *186:10 *313:8 0
7 *186:10 *346:14 0
8 *50:8 *186:10 4.08641e-05
*RES
1 *1191:X *186:10 43.6964 
2 *186:10 *1192:A 38 
*END

*D_NET *187 0.000158251
*CONN
*I *1195:A I *D sky130_fd_sc_hd__clkbuf_1
*I *1194:X O *D sky130_fd_sc_hd__mux2_1
*CAP
1 *1195:A 7.91257e-05
2 *1194:X 7.91257e-05
*RES
1 *1194:X *1195:A 47.4707 
*END

*D_NET *188 0.00132029
*CONN
*I *1197:A I *D sky130_fd_sc_hd__clkbuf_1
*I *1196:X O *D sky130_fd_sc_hd__mux2_1
*CAP
1 *1197:A 0.00019148
2 *1196:X 0.000315873
3 *188:10 0.000507353
4 *1197:A *256:234 0
5 *188:10 *1310:CLK 4.334e-05
6 *188:10 *243:8 8.91468e-07
7 *188:10 *325:76 2.64616e-05
8 *188:10 *326:35 8.62783e-05
9 *1196:S *188:10 4.2062e-05
10 *1310:D *1197:A 0.00010655
*RES
1 *1196:X *188:10 42.205 
2 *188:10 *1197:A 41.9979 
*END

*D_NET *189 0.000794077
*CONN
*I *1199:A I *D sky130_fd_sc_hd__clkbuf_1
*I *1198:X O *D sky130_fd_sc_hd__mux2_1
*CAP
1 *1199:A 0
2 *1198:X 0.000378962
3 *189:10 0.000378962
4 *173:30 *189:10 3.61521e-05
*RES
1 *1198:X *189:10 43.3857 
2 *189:10 *1199:A 38 
*END

*D_NET *190 0.00109695
*CONN
*I *1201:A I *D sky130_fd_sc_hd__clkbuf_1
*I *1200:X O *D sky130_fd_sc_hd__mux2_1
*CAP
1 *1201:A 3.69241e-05
2 *1200:X 0.00036813
3 *190:14 0.000405054
4 *1201:A *1312:CLK 9.77405e-05
5 *190:14 *253:12 1.9877e-05
6 *1129:C1 *1201:A 5.56356e-05
7 *1312:D *1201:A 1.24376e-05
8 *142:16 *190:14 1.46589e-05
9 *145:39 *190:14 8.64945e-05
*RES
1 *1200:X *190:14 43.075 
2 *190:14 *1201:A 39.0979 
*END

*D_NET *191 0.000665978
*CONN
*I *1203:A I *D sky130_fd_sc_hd__clkbuf_1
*I *1202:X O *D sky130_fd_sc_hd__mux2_1
*CAP
1 *1203:A 0
2 *1202:X 0.000218605
3 *191:10 0.000218605
4 *191:10 *1126:A 0
5 *191:10 *254:10 0
6 *191:10 *255:23 0.000185428
7 *56:8 *191:10 4.334e-05
*RES
1 *1202:X *191:10 41.9564 
2 *191:10 *1203:A 38 
*END

*D_NET *192 0.00102163
*CONN
*I *1206:A I *D sky130_fd_sc_hd__clkbuf_1
*I *1205:X O *D sky130_fd_sc_hd__mux2_1
*CAP
1 *1206:A 6.9479e-05
2 *1205:X 0.000285344
3 *192:10 0.000354823
4 *192:10 *243:43 4.83192e-05
5 *192:10 *256:150 7.64944e-05
6 *192:10 *326:48 0.000137568
7 *58:10 *192:10 4.96024e-05
*RES
1 *1205:X *192:10 43.5929 
2 *192:10 *1206:A 39.4707 
*END

*D_NET *193 0.000857306
*CONN
*I *1208:A I *D sky130_fd_sc_hd__clkbuf_1
*I *1207:X O *D sky130_fd_sc_hd__mux2_1
*CAP
1 *1208:A 0
2 *1207:X 0.00035536
3 *193:10 0.00035536
4 *193:10 *1306:RESET_B 2.37172e-05
5 *193:10 *242:60 5.2711e-05
6 *193:10 *267:10 1.59071e-05
7 *59:10 *193:10 5.42498e-05
*RES
1 *1207:X *193:10 29.38 
2 *193:10 *1208:A 23 
*END

*D_NET *194 0.000346869
*CONN
*I *1210:A I *D sky130_fd_sc_hd__clkbuf_1
*I *1209:X O *D sky130_fd_sc_hd__mux2_1
*CAP
1 *1210:A 0
2 *1209:X 0.000164765
3 *194:10 0.000164765
4 *194:10 *1308:RESET_B 0
5 *194:10 *243:86 0
6 *184:49 *194:10 1.73399e-05
*RES
1 *1209:X *194:10 40.8793 
2 *194:10 *1210:A 38 
*END

*D_NET *195 0.00077861
*CONN
*I *1212:A I *D sky130_fd_sc_hd__clkbuf_1
*I *1211:X O *D sky130_fd_sc_hd__mux2_1
*CAP
1 *1212:A 0
2 *1211:X 0.00027154
3 *195:10 0.00027154
4 *195:10 *1211:A1 6.15123e-05
5 *195:10 *371:10 1.00084e-05
6 *195:10 *371:12 0.00016401
*RES
1 *1211:X *195:10 42.785 
2 *195:10 *1212:A 38 
*END

*D_NET *196 0.00090415
*CONN
*I *1390:A I *D sky130_fd_sc_hd__dlygate4sd3_1
*I *1213:X O *D sky130_fd_sc_hd__mux2_1
*CAP
1 *1390:A 0
2 *1213:X 0.000362501
3 *196:10 0.000362501
4 *196:10 *246:68 0.000143676
5 *196:10 *371:10 3.54728e-05
*RES
1 *1213:X *196:10 44.2971 
2 *196:10 *1390:A 38 
*END

*D_NET *197 0.000717637
*CONN
*I *1385:A I *D sky130_fd_sc_hd__dlygate4sd3_1
*I *1215:X O *D sky130_fd_sc_hd__mux2_1
*CAP
1 *1385:A 0
2 *1215:X 0.000265834
3 *197:10 0.000265834
4 *197:10 *1289:RESET_B 6.00097e-05
5 *197:10 *256:280 4.96024e-05
6 *197:10 *256:287 5.26052e-05
7 *197:10 *305:26 2.37508e-05
*RES
1 *1215:X *197:10 43.3443 
2 *197:10 *1385:A 38 
*END

*D_NET *198 0.00134421
*CONN
*I *1218:A I *D sky130_fd_sc_hd__clkbuf_1
*I *1217:X O *D sky130_fd_sc_hd__mux2_1
*CAP
1 *1218:A 0.000168248
2 *1217:X 0.000244949
3 *198:12 0.000413197
4 *1218:A *1321:CLK 1.11037e-05
5 *1218:A *246:20 1.35999e-05
6 *1218:A *246:26 5.58003e-05
7 *198:12 *246:26 0.000113398
8 *126:199 *198:12 0.000323913
*RES
1 *1217:X *198:12 43.5307 
2 *198:12 *1218:A 40.4236 
*END

*D_NET *199 0.000712699
*CONN
*I *1220:A I *D sky130_fd_sc_hd__clkbuf_1
*I *1219:X O *D sky130_fd_sc_hd__mux2_1
*CAP
1 *1220:A 9.42444e-05
2 *1219:X 0.000115896
3 *199:10 0.00021014
4 *1220:A *342:10 0.000185657
5 *199:10 *1205:A0 1.34995e-05
6 *199:10 *304:18 7.51453e-06
7 *1219:S *199:10 8.57485e-05
*RES
1 *1219:X *199:10 39.8229 
2 *199:10 *1220:A 40.7757 
*END

*D_NET *200 0.000672104
*CONN
*I *1387:A I *D sky130_fd_sc_hd__dlygate4sd3_1
*I *1221:X O *D sky130_fd_sc_hd__mux2_1
*CAP
1 *1387:A 0
2 *1221:X 0.000336052
3 *200:10 0.000336052
4 *200:10 *246:26 0
5 *200:10 *246:45 0
6 *126:216 *200:10 0
*RES
1 *1221:X *200:10 43.3443 
2 *200:10 *1387:A 38 
*END

*D_NET *201 0.000320919
*CONN
*I *1224:A I *D sky130_fd_sc_hd__clkbuf_1
*I *1223:X O *D sky130_fd_sc_hd__mux2_1
*CAP
1 *1224:A 8.86321e-05
2 *1223:X 8.86321e-05
3 *1224:A *1223:A1 0.000143655
*RES
1 *1223:X *1224:A 48.4236 
*END

*D_NET *202 0.00167947
*CONN
*I *1226:A I *D sky130_fd_sc_hd__clkbuf_1
*I *1225:X O *D sky130_fd_sc_hd__mux2_1
*CAP
1 *1226:A 0.000408594
2 *1225:X 0.000163276
3 *202:8 0.00057187
4 *1226:A *1325:CLK 2.9733e-05
5 *1226:A *256:234 4.39947e-05
6 *1226:A *364:23 2.64616e-05
7 *202:8 *307:21 0
8 *202:8 *364:8 0.000141572
9 *202:8 *364:23 0.000167443
10 *1325:D *1226:A 0.000126529
*RES
1 *1225:X *202:8 42.0186 
2 *202:8 *1226:A 44.5871 
*END

*D_NET *203 0.000526285
*CONN
*I *1228:A I *D sky130_fd_sc_hd__clkbuf_1
*I *1227:X O *D sky130_fd_sc_hd__mux2_1
*CAP
1 *1228:A 0.000125833
2 *1227:X 6.81227e-05
3 *203:8 0.000193956
4 *1228:A *1326:CLK 9.84851e-05
5 *203:8 *243:62 3.98887e-05
*RES
1 *1227:X *203:8 39.2014 
2 *203:8 *1228:A 40.5686 
*END

*D_NET *204 0.000674629
*CONN
*I *1230:A I *D sky130_fd_sc_hd__clkbuf_1
*I *1229:X O *D sky130_fd_sc_hd__mux2_1
*CAP
1 *1230:A 0
2 *1229:X 0.000221339
3 *204:8 0.000221339
4 *204:8 *244:50 0.000167522
5 *204:8 *280:21 1.16455e-05
6 *70:8 *204:8 5.27824e-05
*RES
1 *1229:X *204:8 42.7229 
2 *204:8 *1230:A 38 
*END

*D_NET *205 0.000369832
*CONN
*I *1232:A I *D sky130_fd_sc_hd__clkbuf_1
*I *1231:X O *D sky130_fd_sc_hd__mux2_1
*CAP
1 *1232:A 0.000113204
2 *1231:X 0.000113204
3 *126:25 *1232:A 0.000143423
*RES
1 *1231:X *1232:A 48.4236 
*END

*D_NET *206 0.00112341
*CONN
*I *1380:A I *D sky130_fd_sc_hd__dlygate4sd3_1
*I *1233:X O *D sky130_fd_sc_hd__mux2_1
*CAP
1 *1380:A 0
2 *1233:X 0.000304308
3 *206:10 0.000304308
4 *206:10 *1091:A_N 7.03359e-05
5 *206:10 *1233:A0 2.64616e-05
6 *206:10 *363:8 1.76557e-05
7 *206:10 *363:12 3.73876e-05
8 *1233:S *206:10 2.65879e-05
9 *126:115 *206:10 0.000336365
*RES
1 *1233:X *206:10 44.7736 
2 *206:10 *1380:A 38 
*END

*D_NET *207 0.00120536
*CONN
*I *1373:A I *D sky130_fd_sc_hd__dlygate4sd3_1
*I *1235:X O *D sky130_fd_sc_hd__mux2_1
*CAP
1 *1373:A 0.000121209
2 *1235:X 0.000336022
3 *207:10 0.000457232
4 *207:10 *358:14 8.57577e-05
5 *207:10 *359:10 0.000155657
6 *126:136 *207:10 4.94862e-05
*RES
1 *1235:X *207:10 44.2971 
2 *207:10 *1373:A 40.0507 
*END

*D_NET *208 0.000842199
*CONN
*I *1364:A I *D sky130_fd_sc_hd__dlygate4sd3_1
*I *1237:X O *D sky130_fd_sc_hd__mux2_1
*CAP
1 *1364:A 0
2 *1237:X 0.000235466
3 *208:12 0.000235466
4 *208:12 *1237:A0 0.000100477
5 *208:12 *1237:A1 3.19474e-05
6 *208:12 *1238:A 3.86731e-05
7 *74:10 *208:12 3.46216e-05
8 *126:130 *208:12 0.000155455
9 *126:136 *208:12 1.0092e-05
*RES
1 *1237:X *208:12 43.7586 
2 *208:12 *1364:A 38 
*END

*D_NET *209 0.000481838
*CONN
*I *1407:A I *D sky130_fd_sc_hd__dlygate4sd3_1
*I *1239:X O *D sky130_fd_sc_hd__mux2_1
*CAP
1 *1407:A 0
2 *1239:X 0.000189434
3 *209:10 0.000189434
4 *209:10 *323:10 0.000102971
*RES
1 *1239:X *209:10 41.0036 
2 *209:10 *1407:A 38 
*END

*D_NET *210 0.000725625
*CONN
*I *1242:A I *D sky130_fd_sc_hd__clkbuf_1
*I *1241:X O *D sky130_fd_sc_hd__mux2_1
*CAP
1 *1242:A 4.24211e-05
2 *1241:X 0.000147974
3 *210:8 0.000190395
4 *210:8 *256:353 0.000138082
5 *210:8 *256:355 5.70022e-05
6 *30:10 *210:8 8.18491e-05
7 *76:10 *210:8 6.79006e-05
*RES
1 *1241:X *210:8 43.075 
2 *210:8 *1242:A 38.6214 
*END

*D_NET *211 0.00120477
*CONN
*I *1244:A I *D sky130_fd_sc_hd__clkbuf_1
*I *1243:X O *D sky130_fd_sc_hd__mux2_1
*CAP
1 *1244:A 0.000118688
2 *1243:X 0.000229193
3 *211:10 0.000347881
4 *1244:A *247:64 7.87147e-05
5 *211:10 *247:68 4.04245e-05
6 *1243:S *211:10 0.000140259
7 *1334:D *1244:A 0.000140931
8 *30:58 *211:10 0.000108681
*RES
1 *1243:X *211:10 41.6043 
2 *211:10 *1244:A 41.0243 
*END

*D_NET *212 0.000851266
*CONN
*I *1246:A I *D sky130_fd_sc_hd__clkbuf_1
*I *1245:X O *D sky130_fd_sc_hd__mux2_1
*CAP
1 *1246:A 0.000150086
2 *1245:X 0.000119748
3 *212:10 0.000269834
4 *212:10 *247:68 4.0421e-05
5 *1245:A1 *212:10 2.18926e-05
6 *1335:D *1246:A 0.000140603
7 *1336:D *212:10 0.000108681
*RES
1 *1245:X *212:10 40.175 
2 *212:10 *1246:A 41.0243 
*END

*D_NET *213 0.00523496
*CONN
*I *1248:A2 I *D sky130_fd_sc_hd__o21ai_1
*I *1276:A3 I *D sky130_fd_sc_hd__o31a_1
*I *1247:Y O *D sky130_fd_sc_hd__nand2_1
*CAP
1 *1248:A2 0
2 *1276:A3 0.000240197
3 *1247:Y 0.00044105
4 *213:41 0.000912022
5 *213:14 0.00159327
6 *1276:A3 *1276:B1 2.99938e-05
7 *1276:A3 *265:10 1.54105e-05
8 *213:14 *1247:A 5.07225e-05
9 *213:14 *256:459 4.36547e-05
10 *213:14 *256:465 5.20138e-05
11 *213:41 *256:465 0.000120005
12 *1123:A1 *1276:A3 6.17437e-06
13 *1123:A1 *213:14 1.24376e-05
14 *1125:A2 *213:41 0.000149428
15 *1247:B *213:14 2.54705e-07
16 *1248:A1 *213:41 1.24376e-05
17 *1251:A1 *1276:A3 9.6279e-05
18 *1269:A1 *213:41 0
19 *97:36 *1276:A3 1.01436e-05
20 *124:38 *213:41 5.79413e-06
21 *129:16 *213:41 0
22 *135:15 *213:41 1.5769e-05
23 *136:12 *213:41 0.00104952
24 *137:37 *1276:A3 1.50113e-05
25 *138:16 *213:14 0.000227997
26 *138:16 *213:41 0.000125523
27 *138:24 *1276:A3 9.85586e-06
*RES
1 *1247:Y *213:14 49.2951 
2 *213:14 *1276:A3 49.9461 
3 *213:14 *213:41 38.9429 
4 *213:41 *1248:A2 23 
*END

*D_NET *214 0.00313882
*CONN
*I *1249:A1 I *D sky130_fd_sc_hd__mux2_1
*I *1248:Y O *D sky130_fd_sc_hd__o21ai_1
*CAP
1 *1249:A1 0.000402859
2 *1248:Y 0.000607545
3 *214:8 0.0010104
4 *1249:A1 *1344:RESET_B 0
5 *1249:A1 *245:14 3.64246e-05
6 *1249:A1 *245:34 0.0002778
7 *1249:A1 *256:480 0
8 *1249:A1 *309:6 5.79559e-05
9 *214:8 *230:8 0.000489746
10 *1271:A1 *214:8 8.19642e-06
11 *1271:A2 *214:8 2.602e-05
12 *86:10 *1249:A1 0.000167113
13 *86:10 *214:8 4.15198e-05
14 *135:15 *214:8 1.32314e-05
*RES
1 *1248:Y *214:8 47.1971 
2 *214:8 *1249:A1 47.135 
*END

*D_NET *215 0.000419142
*CONN
*I *1250:A I *D sky130_fd_sc_hd__clkbuf_1
*I *1249:X O *D sky130_fd_sc_hd__mux2_1
*CAP
1 *1250:A 2.55116e-05
2 *1249:X 0.000127641
3 *215:8 0.000153153
4 *1250:A *1337:CLK 5.56279e-05
5 *215:8 *245:14 5.72082e-05
*RES
1 *1249:X *215:8 40.2579 
2 *215:8 *1250:A 38.6214 
*END

*D_NET *216 0.00597137
*CONN
*I *1252:A1 I *D sky130_fd_sc_hd__mux2_1
*I *1251:Y O *D sky130_fd_sc_hd__a21oi_1
*CAP
1 *1252:A1 0
2 *1251:Y 0.00149765
3 *216:20 0.000473388
4 *216:12 0.00197104
5 *216:12 *1114:A 5.43544e-05
6 *216:20 *1337:RESET_B 0.000191157
7 *216:20 *217:10 0.000196178
8 *216:20 *256:355 0.000102007
9 *216:20 *256:357 0.000726416
10 *216:20 *309:6 5.3304e-05
11 *1125:A2 *216:12 3.92557e-05
12 *1125:B1 *216:12 8.48502e-06
13 *1251:A2 *216:12 1.92324e-05
14 *1252:S *216:20 5.50049e-05
15 *30:20 *216:20 0
16 *124:44 *216:12 9.91842e-05
17 *129:6 *216:12 4.69418e-05
18 *129:14 *216:12 0.000193285
19 *137:14 *216:12 0.000232049
20 *137:20 *216:12 1.24376e-05
*RES
1 *1251:Y *216:12 45.9514 
2 *216:12 *216:20 44.1479 
3 *216:20 *1252:A1 23 
*END

*D_NET *217 0.000826886
*CONN
*I *1253:A I *D sky130_fd_sc_hd__clkbuf_1
*I *1252:X O *D sky130_fd_sc_hd__mux2_1
*CAP
1 *1253:A 0
2 *1252:X 0.00020353
3 *217:10 0.00020353
4 *217:10 *309:6 5.70419e-05
5 *30:20 *217:10 9.37532e-05
6 *80:8 *217:10 7.28526e-05
7 *216:20 *217:10 0.000196178
*RES
1 *1252:X *217:10 44.1729 
2 *217:10 *1253:A 38 
*END

*D_NET *218 0.000564874
*CONN
*I *1255:A I *D sky130_fd_sc_hd__clkbuf_1
*I *1254:X O *D sky130_fd_sc_hd__mux2_1
*CAP
1 *1255:A 0
2 *1254:X 0.000234865
3 *218:10 0.000234865
4 *218:10 *245:52 4.49961e-05
5 *130:40 *218:10 5.01469e-05
*RES
1 *1254:X *218:10 41.8321 
2 *218:10 *1255:A 38 
*END

*D_NET *219 0.00382389
*CONN
*I *1267:C I *D sky130_fd_sc_hd__or4_1
*I *1266:A2 I *D sky130_fd_sc_hd__o31ai_1
*I *1264:C1 I *D sky130_fd_sc_hd__a211o_1
*I *1261:B I *D sky130_fd_sc_hd__nor2_1
*I *1257:C I *D sky130_fd_sc_hd__or3_1
*I *1258:A2 I *D sky130_fd_sc_hd__o21ai_1
*I *1256:Y O *D sky130_fd_sc_hd__nand2_2
*CAP
1 *1267:C 0.000115409
2 *1266:A2 2.92178e-05
3 *1264:C1 0.000138174
4 *1261:B 9.69249e-05
5 *1257:C 0
6 *1258:A2 5.80982e-05
7 *1256:Y 7.87325e-05
8 *219:58 0.000229097
9 *219:43 0.000340087
10 *219:28 0.000299686
11 *219:19 0.000187171
12 *219:8 0.000238684
13 *1258:A2 *247:8 1.05235e-05
14 *1261:B *223:10 1.35714e-05
15 *1264:C1 *1265:B1 6.17437e-06
16 *1264:C1 *224:14 3.28357e-06
17 *1266:A2 *1267:D 1.0862e-05
18 *1267:C *1267:D 0.0001112
19 *219:19 *221:8 8.78864e-05
20 *1264:B1 *1264:C1 5.5792e-05
21 *98:89 *219:19 2.14738e-05
22 *99:14 *1264:C1 0.000267765
23 *102:18 *1267:C 1.47795e-05
24 *102:28 *1264:C1 1.61385e-05
25 *105:12 *219:58 5.40793e-05
26 *105:16 *219:8 0.000141869
27 *105:16 *219:19 0.00026429
28 *105:16 *219:28 0.000179811
29 *105:16 *219:43 0.000203022
30 *105:16 *219:58 6.81072e-05
31 *127:60 *219:8 0
32 *127:60 *219:19 0
33 *127:70 *219:19 1.97402e-05
34 *127:70 *219:28 9.04798e-05
35 *127:70 *219:43 2.37148e-05
36 *139:46 *1261:B 1.24376e-05
37 *139:61 *1261:B 4.33627e-05
38 *139:61 *219:43 0.000163256
39 *139:61 *219:58 0.000128994
*RES
1 *1256:Y *219:8 39.9057 
2 *219:8 *1258:A2 38.6214 
3 *219:8 *219:19 3.66643 
4 *219:19 *1257:C 38 
5 *219:19 *219:28 2.61 
6 *219:28 *1261:B 40.0921 
7 *219:28 *219:43 2.96214 
8 *219:43 *1264:C1 41.5007 
9 *219:43 *219:58 17.61 
10 *219:58 *1266:A2 23.3832 
11 *219:58 *1267:C 25.5686 
*END

*D_NET *220 0.000254898
*CONN
*I *1259:B I *D sky130_fd_sc_hd__and3_1
*I *1257:X O *D sky130_fd_sc_hd__or3_1
*CAP
1 *1259:B 0.000117465
2 *1257:X 0.000117465
3 *1259:B *1259:C 7.53776e-06
4 *127:70 *1259:B 1.24298e-05
*RES
1 *1257:X *1259:B 47.5743 
*END

*D_NET *221 0.000828215
*CONN
*I *1259:C I *D sky130_fd_sc_hd__and3_1
*I *1258:Y O *D sky130_fd_sc_hd__o21ai_1
*CAP
1 *1259:C 0.000226669
2 *1258:Y 4.28315e-05
3 *221:8 0.000269501
4 *1259:B *1259:C 7.53776e-06
5 *98:72 *1259:C 3.7122e-06
6 *98:89 *1259:C 9.86777e-06
7 *98:89 *221:8 3.88629e-05
8 *127:70 *1259:C 0.000141347
9 *219:19 *221:8 8.78864e-05
*RES
1 *1258:Y *221:8 39.2014 
2 *221:8 *1259:C 41.0864 
*END

*D_NET *222 0.000196335
*CONN
*I *1260:A I *D sky130_fd_sc_hd__clkbuf_1
*I *1259:X O *D sky130_fd_sc_hd__and3_1
*CAP
1 *1260:A 9.81677e-05
2 *1259:X 9.81677e-05
*RES
1 *1259:X *1260:A 47.9471 
*END

*D_NET *223 0.000556512
*CONN
*I *1265:A2 I *D sky130_fd_sc_hd__o211a_1
*I *1261:Y O *D sky130_fd_sc_hd__nor2_1
*CAP
1 *1265:A2 0
2 *1261:Y 0.000237759
3 *223:10 0.000237759
4 *1261:B *223:10 1.35714e-05
5 *127:70 *223:10 6.12479e-05
6 *139:61 *223:10 6.17437e-06
*RES
1 *1261:Y *223:10 41.48 
2 *223:10 *1265:A2 38 
*END

*D_NET *224 0.00121964
*CONN
*I *1267:D I *D sky130_fd_sc_hd__or4_1
*I *1266:A3 I *D sky130_fd_sc_hd__o31ai_1
*I *1264:A1 I *D sky130_fd_sc_hd__a211o_1
*I *1262:Y O *D sky130_fd_sc_hd__nand2_1
*CAP
1 *1267:D 8.522e-05
2 *1266:A3 0
3 *1264:A1 0
4 *1262:Y 6.049e-05
5 *224:21 0.000108227
6 *224:14 0.000128659
7 *224:6 0.000212157
8 *224:6 *1262:A 2.10502e-05
9 *1264:C1 *224:14 3.28357e-06
10 *1266:A2 *1267:D 1.0862e-05
11 *1267:A *1267:D 4.00259e-06
12 *1267:C *1267:D 0.0001112
13 *102:18 *1267:D 9.98532e-05
14 *102:18 *224:6 2.64616e-05
15 *102:18 *224:21 2.95526e-05
16 *102:24 *224:14 0.000137744
17 *105:12 *224:6 7.48414e-05
18 *105:12 *224:14 8.57485e-05
19 *105:12 *224:21 2.02872e-05
*RES
1 *1262:Y *224:6 24.5743 
2 *224:6 *224:14 33.1071 
3 *224:14 *1264:A1 23 
4 *224:6 *224:21 0.621429 
5 *224:21 *1266:A3 23 
6 *224:21 *1267:D 25.5479 
*END

*D_NET *225 0.000490696
*CONN
*I *1264:A2 I *D sky130_fd_sc_hd__a211o_1
*I *1263:X O *D sky130_fd_sc_hd__or2_1
*CAP
1 *1264:A2 0
2 *1263:X 0.000134568
3 *225:10 0.000134568
4 *1264:B1 *225:10 6.03228e-05
5 *105:16 *225:10 0.000134776
6 *139:46 *225:10 2.64616e-05
*RES
1 *1263:X *225:10 40.5271 
2 *225:10 *1264:A2 38 
*END

*D_NET *226 0.00031088
*CONN
*I *1265:B1 I *D sky130_fd_sc_hd__o211a_1
*I *1264:X O *D sky130_fd_sc_hd__a211o_1
*CAP
1 *1265:B1 0.000104542
2 *1264:X 0.000104542
3 *1264:C1 *1265:B1 6.17437e-06
4 *99:8 *1265:B1 1.34966e-05
5 *99:14 *1265:B1 2.88219e-05
6 *127:70 *1265:B1 5.3304e-05
*RES
1 *1264:X *1265:B1 48.0714 
*END

*D_NET *227 0.000435971
*CONN
*I *1268:A1 I *D sky130_fd_sc_hd__a21oi_1
*I *1266:Y O *D sky130_fd_sc_hd__o31ai_1
*CAP
1 *1268:A1 0
2 *1266:Y 0.000124752
3 *227:10 0.000124752
4 *227:10 *228:10 8.62876e-05
5 *102:18 *227:10 0.00010018
*RES
1 *1266:Y *227:10 40.2993 
2 *227:10 *1268:A1 38 
*END

*D_NET *228 0.00101593
*CONN
*I *1268:A2 I *D sky130_fd_sc_hd__a21oi_1
*I *1267:X O *D sky130_fd_sc_hd__or4_1
*CAP
1 *1268:A2 0
2 *1267:X 0.000285827
3 *228:10 0.000285827
4 *228:10 *247:48 0
5 *228:10 *256:311 1.44546e-05
6 *102:14 *228:10 9.84794e-05
7 *102:18 *228:10 0.000230604
8 *126:248 *228:10 1.44546e-05
9 *227:10 *228:10 8.62876e-05
*RES
1 *1267:X *228:10 43.3857 
2 *228:10 *1268:A2 38 
*END

*D_NET *229 0.000139912
*CONN
*I *1270:B I *D sky130_fd_sc_hd__nand2_1
*I *1269:Y O *D sky130_fd_sc_hd__o21ai_1
*CAP
1 *1270:B 5.6123e-05
2 *1269:Y 5.6123e-05
3 *1270:B *375:12 1.39431e-05
4 *134:24 *1270:B 1.37232e-05
*RES
1 *1269:Y *1270:B 47.1186 
*END

*D_NET *230 0.001095
*CONN
*I *1272:B I *D sky130_fd_sc_hd__nand2_1
*I *1271:Y O *D sky130_fd_sc_hd__o21ai_1
*CAP
1 *1272:B 0
2 *1271:Y 0.000130966
3 *230:8 0.000130966
4 *230:8 *1271:B1 3.22879e-05
5 *230:8 *375:44 1.89178e-05
6 *1272:A *230:8 0.000271364
7 *86:10 *230:8 2.07484e-05
8 *214:8 *230:8 0.000489746
*RES
1 *1271:Y *230:8 28.8829 
2 *230:8 *1272:B 23 
*END

*D_NET *231 0.00147761
*CONN
*I *1274:B I *D sky130_fd_sc_hd__or2_1
*I *1273:X O *D sky130_fd_sc_hd__o31a_1
*CAP
1 *1274:B 0.000559613
2 *1273:X 6.00092e-05
3 *231:8 0.000619622
4 *99:51 *1274:B 0.000153315
5 *129:52 *231:8 8.50457e-05
*RES
1 *1273:X *231:8 39.2014 
2 *231:8 *1274:B 47.1143 
*END

*D_NET *232 0.00060347
*CONN
*I *1275:A I *D sky130_fd_sc_hd__clkbuf_1
*I *1274:X O *D sky130_fd_sc_hd__or2_1
*CAP
1 *1275:A 0
2 *1274:X 0.000256997
3 *232:10 0.000256997
4 *99:51 *232:10 4.70114e-05
5 *126:40 *232:10 4.24646e-05
*RES
1 *1274:X *232:10 42.3086 
2 *232:10 *1275:A 38 
*END

*D_NET *233 0.00111235
*CONN
*I *1277:B I *D sky130_fd_sc_hd__or2_1
*I *1276:X O *D sky130_fd_sc_hd__o31a_1
*CAP
1 *1277:B 0
2 *1276:X 0.000271734
3 *233:10 0.000271734
4 *233:10 *256:459 8.22436e-05
5 *233:10 *355:48 0.00031749
6 *1123:A1 *233:10 9.03364e-06
7 *88:14 *233:10 0.000133658
8 *138:16 *233:10 2.64616e-05
*RES
1 *1276:X *233:10 43.4686 
2 *233:10 *1277:B 38 
*END

*D_NET *234 0.000787157
*CONN
*I *1278:A I *D sky130_fd_sc_hd__clkbuf_1
*I *1277:X O *D sky130_fd_sc_hd__or2_1
*CAP
1 *1278:A 0.000121469
2 *1277:X 0.000108252
3 *234:8 0.000229721
4 *1278:A *1360:A 0.000231166
5 *88:14 *1278:A 3.16665e-05
6 *88:14 *234:8 3.76761e-05
7 *131:16 *234:8 2.72055e-05
*RES
1 *1277:X *234:8 40.2579 
2 *234:8 *1278:A 41.0036 
*END

*D_NET *235 0.000388038
*CONN
*I *1280:B I *D sky130_fd_sc_hd__or2_1
*I *1279:Y O *D sky130_fd_sc_hd__a21oi_1
*CAP
1 *1280:B 5.57176e-05
2 *1279:Y 5.52294e-05
3 *235:8 0.000110947
4 *126:72 *235:8 8.71559e-05
5 *130:23 *235:8 7.89883e-05
*RES
1 *1279:Y *235:8 39.2014 
2 *235:8 *1280:B 39.2014 
*END

*D_NET *236 0.000656703
*CONN
*I *1281:A I *D sky130_fd_sc_hd__clkbuf_1
*I *1280:X O *D sky130_fd_sc_hd__or2_1
*CAP
1 *1281:A 0
2 *1280:X 0.000272217
3 *236:10 0.000272217
4 *1280:A *236:10 2.93431e-05
5 *126:64 *236:10 8.29264e-05
6 *127:60 *236:10 0
*RES
1 *1280:X *236:10 41.9564 
2 *236:10 *1281:A 38 
*END

*D_NET *237 0.00018468
*CONN
*I *1284:B I *D sky130_fd_sc_hd__nor2_1
*I *1283:Y O *D sky130_fd_sc_hd__a21oi_1
*CAP
1 *1284:B 5.58353e-05
2 *1283:Y 5.58353e-05
3 *1284:B *291:12 2.93335e-05
4 *1284:B *324:48 4.04372e-05
5 *93:40 *1284:B 3.23857e-06
*RES
1 *1283:Y *1284:B 47.6157 
*END

*D_NET *238 0.000975171
*CONN
*I *1286:B I *D sky130_fd_sc_hd__nor2_1
*I *1285:Y O *D sky130_fd_sc_hd__nor2_1
*CAP
1 *1286:B 5.23551e-05
2 *1285:Y 0.000174587
3 *238:8 0.000226942
4 *238:8 *1351:RESET_B 3.52642e-05
5 *238:8 *240:38 0
6 *238:8 *240:51 0
7 *238:8 *256:621 0
8 *28:16 *1286:B 5.56356e-05
9 *28:16 *238:8 0.000326053
10 *92:10 *1286:B 2.02872e-05
11 *92:10 *238:8 8.4047e-05
*RES
1 *1285:Y *238:8 42.7229 
2 *238:8 *1286:B 39.0979 
*END

*D_NET *239 0.0186072
*CONN
*I *1360:A I *D sky130_fd_sc_hd__clkbuf_16
*I *1359:A I *D sky130_fd_sc_hd__clkbuf_16
*I *1356:A I *D sky130_fd_sc_hd__clkbuf_16
*I *1353:A I *D sky130_fd_sc_hd__clkbuf_16
*I *1354:A I *D sky130_fd_sc_hd__clkbuf_16
*I *1355:A I *D sky130_fd_sc_hd__clkbuf_16
*I *1358:A I *D sky130_fd_sc_hd__clkbuf_16
*I *1357:A I *D sky130_fd_sc_hd__clkbuf_16
*I *1352:X O *D sky130_fd_sc_hd__clkbuf_16
*CAP
1 *1360:A 0.000232404
2 *1359:A 0
3 *1356:A 0
4 *1353:A 0.000328382
5 *1354:A 0.000200299
6 *1355:A 3.55809e-05
7 *1358:A 0
8 *1357:A 0.000181817
9 *1352:X 0
10 *239:128 8.08218e-05
11 *239:122 0.000928887
12 *239:87 0.00158851
13 *239:74 0.000420567
14 *239:64 0.00144482
15 *239:62 0.00214312
16 *239:50 0.00299846
17 *239:43 0.00109323
18 *239:18 0.00261671
19 *239:6 0.00158134
20 *1354:A *256:621 0.000278634
21 *1357:A *295:29 5.67058e-05
22 *239:18 *1225:A0 8.0934e-05
23 *239:50 *1106:B 0.000298638
24 *239:50 *1225:A0 0.000102629
25 *239:50 *256:246 5.79413e-06
26 *239:62 *1310:CLK 2.19246e-05
27 *239:74 *320:34 0
28 *239:87 *256:621 0.000111852
29 *239:122 *256:246 2.1798e-05
30 *1096:B *239:43 0.000153507
31 *1107:A *239:122 0.00026808
32 *1171:B1 *239:74 2.9113e-05
33 *1171:B2 *239:74 2.69674e-05
34 *1171:C1 *1355:A 3.56063e-05
35 *1171:C1 *239:74 0.000100069
36 *1278:A *1360:A 0.000231166
37 *3:17 *239:18 0
38 *39:10 *239:87 0.000113389
39 *47:10 *239:87 1.31888e-05
40 *93:120 *239:74 6.7177e-06
41 *93:139 *239:74 1.19796e-05
42 *98:12 *239:128 3.90213e-05
43 *98:14 *239:128 0.000113414
44 *99:43 *239:122 0
45 *99:51 *239:18 0
46 *99:51 *239:50 0
47 *99:69 *239:43 0
48 *122:8 *239:50 0
49 *123:10 *239:122 4.27353e-05
50 *168:27 *239:74 3.66555e-05
51 *171:10 *239:74 7.69256e-06
52 *173:8 *239:74 0.000407055
53 *173:23 *239:74 1.68817e-05
54 *173:30 *239:74 0.000100061
*RES
1 *1352:X *239:6 38 
2 *239:6 *239:18 28.2267 
3 *239:18 *1357:A 47.2132 
4 *239:18 *239:43 28.5582 
5 *239:43 *1358:A 23 
6 *239:6 *239:50 5.60321 
7 *239:50 *239:62 40.846 
8 *239:62 *239:64 15 
9 *239:64 *239:74 39.1971 
10 *239:74 *1355:A 38.6214 
11 *239:64 *239:87 19.7821 
12 *239:87 *1354:A 42.7643 
13 *239:87 *1353:A 43.3857 
14 *239:62 *1356:A 23 
15 *239:50 *239:122 26.1961 
16 *239:122 *239:128 31.9057 
17 *239:128 *1359:A 23 
18 *239:122 *1360:A 27.4329 
*END

*D_NET *240 0.0180894
*CONN
*I *1295:CLK I *D sky130_fd_sc_hd__dfrtp_1
*I *1287:CLK I *D sky130_fd_sc_hd__dfrtp_1
*I *1350:CLK I *D sky130_fd_sc_hd__dfrtp_4
*I *1292:CLK I *D sky130_fd_sc_hd__dfrtp_1
*I *1291:CLK I *D sky130_fd_sc_hd__dfrtp_1
*I *1349:CLK I *D sky130_fd_sc_hd__dfrtp_4
*I *1296:CLK I *D sky130_fd_sc_hd__dfrtp_1
*I *1304:CLK I *D sky130_fd_sc_hd__dfrtp_1
*I *1309:CLK I *D sky130_fd_sc_hd__dfrtp_1
*I *1351:CLK I *D sky130_fd_sc_hd__dfrtp_4
*I *1294:CLK I *D sky130_fd_sc_hd__dfrtp_1
*I *1293:CLK I *D sky130_fd_sc_hd__dfrtp_1
*I *1353:X O *D sky130_fd_sc_hd__clkbuf_16
*CAP
1 *1295:CLK 0
2 *1287:CLK 7.68186e-05
3 *1350:CLK 0
4 *1292:CLK 0
5 *1291:CLK 0.000451443
6 *1349:CLK 0.000112754
7 *1296:CLK 0
8 *1304:CLK 0
9 *1309:CLK 0
10 *1351:CLK 0
11 *1294:CLK 0
12 *1293:CLK 8.34142e-05
13 *1353:X 4.55235e-05
14 *240:149 0.000805858
15 *240:120 0.000255939
16 *240:107 0.00139343
17 *240:94 0.00119148
18 *240:92 0.000654362
19 *240:90 0.000674318
20 *240:79 0.000387327
21 *240:64 0.000494464
22 *240:57 0.000550309
23 *240:51 0.00118773
24 *240:38 0.000654295
25 *240:34 0.000703179
26 *240:27 0.000272051
27 *240:14 0.000707024
28 *240:12 0.000866195
29 *240:8 0.00112267
30 *1287:CLK *256:621 5.61086e-05
31 *240:12 *1294:RESET_B 0.000407218
32 *240:12 *292:16 0.000301409
33 *240:14 *1293:RESET_B 9.61708e-05
34 *240:27 *281:8 0.000114092
35 *240:27 *281:27 0
36 *240:34 *1293:RESET_B 4.21921e-05
37 *240:34 *329:10 7.50355e-05
38 *240:34 *329:23 0.000189848
39 *240:38 *329:23 9.98995e-05
40 *240:51 *1351:RESET_B 0
41 *240:51 *256:58 0.000383494
42 *240:51 *256:60 7.35739e-05
43 *240:51 *256:607 1.65153e-05
44 *240:51 *314:18 9.78729e-06
45 *240:51 *314:37 7.40718e-05
46 *240:51 *335:27 0.000140927
47 *240:57 *314:37 0.000109435
48 *240:57 *335:27 0.000138747
49 *240:64 *256:607 7.39038e-05
50 *240:79 *1304:RESET_B 1.33487e-05
51 *240:79 *256:607 6.06809e-06
52 *240:90 *256:621 7.25311e-06
53 *240:92 *256:621 7.01552e-06
54 *240:92 *324:48 0.000272507
55 *240:94 *256:707 0
56 *240:94 *324:48 0.000272516
57 *240:120 *256:8 0
58 *240:120 *256:23 0.000141038
59 *240:120 *327:8 5.56203e-05
60 *240:120 *327:29 0.000112861
61 *240:149 *1151:A 2.49086e-05
62 *240:149 *1295:RESET_B 8.98585e-05
63 *240:149 *256:86 1.51481e-05
64 *240:149 *292:16 0.0002129
65 *240:149 *303:27 8.57485e-05
66 *240:149 *310:10 0.000190742
67 *1079:A *240:90 0.000146822
68 *1144:S *240:120 0
69 *1153:A1 *240:51 5.3304e-05
70 *1285:B *240:90 7.42808e-05
71 *1287:D *240:90 9.58908e-05
72 *1291:D *1291:CLK 3.22879e-05
73 *1293:D *1293:CLK 9.04105e-06
74 *1293:D *240:14 5.41385e-05
75 *7:13 *240:27 0
76 *28:16 *240:90 5.68958e-05
77 *36:8 *240:27 4.08641e-05
78 *52:10 *240:57 0.000111648
79 *90:10 *1349:CLK 6.63698e-05
80 *90:10 *240:94 8.43721e-05
81 *93:23 *240:94 6.39814e-05
82 *93:66 *240:12 0
83 *93:93 *240:8 2.93845e-05
84 *93:93 *240:12 0
85 *93:93 *240:27 0
86 *93:93 *240:149 0.000183876
87 *93:120 *240:57 0
88 *94:25 *240:90 2.93335e-05
89 *94:25 *240:92 4.51842e-05
90 *157:6 *240:51 0.000274234
91 *158:10 *240:149 3.6941e-05
92 *162:18 *240:12 0
93 *162:18 *240:38 0
94 *162:18 *240:51 0
95 *162:18 *240:149 0
96 *163:10 *240:27 0
97 *238:8 *240:38 0
98 *238:8 *240:51 0
*RES
1 *1353:X *240:8 38.6214 
2 *240:8 *240:12 22.54 
3 *240:12 *240:14 6.815 
4 *240:14 *1293:CLK 24.5743 
5 *240:14 *240:27 35.4271 
6 *240:27 *1294:CLK 23 
7 *240:12 *240:34 5.38571 
8 *240:34 *240:38 17.9621 
9 *240:38 *1351:CLK 38 
10 *240:38 *240:51 28.0293 
11 *240:51 *240:57 41.0614 
12 *240:57 *1309:CLK 23 
13 *240:51 *240:64 2.52714 
14 *240:64 *1304:CLK 23 
15 *240:64 *240:79 35.2821 
16 *240:79 *1296:CLK 23 
17 *240:34 *240:90 22.9646 
18 *240:90 *240:92 5.60321 
19 *240:92 *240:94 8.59643 
20 *240:94 *1349:CLK 40.61 
21 *240:94 *240:107 27.5321 
22 *240:107 *1291:CLK 31.2443 
23 *240:107 *240:120 35.7793 
24 *240:120 *1292:CLK 23 
25 *240:92 *1350:CLK 38 
26 *240:90 *1287:CLK 39.4189 
27 *240:8 *240:149 32.8971 
28 *240:149 *1295:CLK 23 
*END

*D_NET *241 0.010705
*CONN
*I *1305:CLK I *D sky130_fd_sc_hd__dfrtp_1
*I *1324:CLK I *D sky130_fd_sc_hd__dfrtp_1
*I *1303:CLK I *D sky130_fd_sc_hd__dfrtp_1
*I *1328:CLK I *D sky130_fd_sc_hd__dfrtp_1
*I *1299:CLK I *D sky130_fd_sc_hd__dfrtp_1
*I *1297:CLK I *D sky130_fd_sc_hd__dfrtp_1
*I *1298:CLK I *D sky130_fd_sc_hd__dfrtp_1
*I *1354:X O *D sky130_fd_sc_hd__clkbuf_16
*CAP
1 *1305:CLK 7.82588e-05
2 *1324:CLK 0.000400903
3 *1303:CLK 0.000286805
4 *1328:CLK 0.000370123
5 *1299:CLK 0.000355074
6 *1297:CLK 0
7 *1298:CLK 0.000696199
8 *1354:X 0.000130032
9 *241:68 0.000947272
10 *241:53 0.000768434
11 *241:18 0.00128114
12 *241:10 0.00126148
13 *241:8 0.000460216
14 *241:6 0.000208291
15 *1298:CLK *256:737 9.00429e-05
16 *1298:CLK *321:8 5.73288e-05
17 *1299:CLK *1077:B 9.66585e-05
18 *1299:CLK *324:31 9.13082e-05
19 *1299:CLK *325:29 0.000142678
20 *1324:CLK *1324:RESET_B 8.6745e-05
21 *1324:CLK *293:12 2.90421e-05
22 *1324:CLK *324:74 0.000210428
23 *1324:CLK *325:61 0.00022052
24 *1328:CLK *1179:A1 1.41077e-05
25 *1328:CLK *290:19 1.14876e-05
26 *241:10 *291:12 0
27 *241:10 *298:18 0.000377109
28 *241:10 *325:46 0.000105062
29 *241:10 *326:35 3.31683e-05
30 *241:18 *1349:RESET_B 0
31 *241:18 *256:707 0
32 *241:18 *298:18 0.000310604
33 *241:18 *324:10 0
34 *241:53 *325:46 0.000111158
35 *241:53 *326:35 7.38527e-05
36 *241:68 *324:74 0.000166387
37 *241:68 *325:46 5.91279e-05
38 *241:68 *325:61 0.000453704
39 *241:68 *326:35 0.000148609
40 *1179:S *1328:CLK 0.000433252
41 *1180:A *1328:CLK 0
42 *1297:D *1298:CLK 5.20072e-05
43 *1299:D *1299:CLK 2.10502e-05
44 *1303:D *1303:CLK 4.42603e-05
45 *1324:D *1324:CLK 2.10502e-05
*RES
1 *1354:X *241:6 24.5743 
2 *241:6 *241:8 15 
3 *241:8 *241:10 7.89214 
4 *241:10 *241:18 27.18 
5 *241:18 *1298:CLK 34.6621 
6 *241:18 *1297:CLK 23 
7 *241:10 *1299:CLK 44.8564 
8 *241:8 *241:53 2.96214 
9 *241:53 *1328:CLK 44.8564 
10 *241:53 *241:68 8.59643 
11 *241:68 *1303:CLK 41.8529 
12 *241:68 *1324:CLK 46.8657 
13 *241:6 *1305:CLK 24.4707 
*END

*D_NET *242 0.0126785
*CONN
*I *1312:CLK I *D sky130_fd_sc_hd__dfrtp_1
*I *1308:CLK I *D sky130_fd_sc_hd__dfrtp_1
*I *1307:CLK I *D sky130_fd_sc_hd__dfrtp_1
*I *1313:CLK I *D sky130_fd_sc_hd__dfrtp_1
*I *1314:CLK I *D sky130_fd_sc_hd__dfrtp_1
*I *1316:CLK I *D sky130_fd_sc_hd__dfrtp_1
*I *1306:CLK I *D sky130_fd_sc_hd__dfrtp_1
*I *1302:CLK I *D sky130_fd_sc_hd__dfrtp_1
*I *1300:CLK I *D sky130_fd_sc_hd__dfrtp_1
*I *1301:CLK I *D sky130_fd_sc_hd__dfrtp_1
*I *1355:X O *D sky130_fd_sc_hd__clkbuf_16
*CAP
1 *1312:CLK 0.000462723
2 *1308:CLK 0
3 *1307:CLK 0
4 *1313:CLK 0.000267328
5 *1314:CLK 0
6 *1316:CLK 0.000100256
7 *1306:CLK 0.000553259
8 *1302:CLK 0
9 *1300:CLK 0.000510677
10 *1301:CLK 0.000205507
11 *1355:X 0
12 *242:85 0.000686116
13 *242:81 0.0010642
14 *242:79 0.000692033
15 *242:75 0.00102972
16 *242:60 0.000991399
17 *242:47 0.00106738
18 *242:36 0.000575653
19 *242:8 0.00081809
20 *242:4 0.00053421
21 *1300:CLK *1300:RESET_B 4.81382e-05
22 *1301:CLK *1168:A 0.000119514
23 *1301:CLK *1301:RESET_B 0
24 *1301:CLK *256:86 3.70187e-05
25 *1301:CLK *256:100 0.000102638
26 *1306:CLK *1306:RESET_B 0.000175807
27 *1312:CLK *252:12 0
28 *1312:CLK *253:12 5.86204e-05
29 *1313:CLK *253:6 0.00014384
30 *1316:CLK *1176:A2 2.40267e-05
31 *242:8 *1168:A 3.3123e-05
32 *242:8 *1401:A 0.000104706
33 *242:36 *1401:A 5.88075e-05
34 *242:60 *1185:A 0
35 *242:60 *1306:RESET_B 7.85456e-05
36 *242:60 *267:10 9.66585e-05
37 *242:75 *1185:A 0
38 *242:75 *252:12 0
39 *242:79 *256:811 7.1349e-05
40 *242:81 *1307:RESET_B 2.33744e-05
41 *242:81 *256:811 0.000214026
42 *242:81 *346:14 8.46881e-05
43 *1129:C1 *1312:CLK 2.02872e-05
44 *1172:S *242:36 7.92108e-05
45 *1173:A *1301:CLK 0
46 *1176:A1 *1316:CLK 1.24376e-05
47 *1201:A *1312:CLK 9.77405e-05
48 *1307:D *242:81 3.57857e-05
49 *1308:D *242:79 4.9939e-05
50 *1312:D *1312:CLK 2.31687e-05
51 *16:13 *242:85 0
52 *17:13 *1313:CLK 1.35999e-05
53 *45:8 *242:47 8.81427e-05
54 *50:8 *242:85 0
55 *51:10 *1312:CLK 3.83778e-05
56 *93:139 *242:60 0.000218553
57 *93:147 *1316:CLK 1.71334e-05
58 *93:168 *1312:CLK 9.81834e-05
59 *141:24 *1312:CLK 0.000185368
60 *169:10 *242:36 0.000135616
61 *170:10 *1301:CLK 0.000266289
62 *170:10 *242:8 0.000135493
63 *180:28 *242:75 7.7086e-05
64 *186:10 *242:85 0
65 *193:10 *242:60 5.2711e-05
*RES
1 *1355:X *242:4 23 
2 *242:4 *242:8 18.6664 
3 *242:8 *1301:CLK 44.1107 
4 *242:8 *1300:CLK 46.7207 
5 *242:4 *242:36 22.6021 
6 *242:36 *1302:CLK 38 
7 *242:36 *242:47 17.9621 
8 *242:47 *1306:CLK 34.1029 
9 *242:47 *242:60 21.67 
10 *242:60 *1316:CLK 40.0921 
11 *242:60 *242:75 7.89214 
12 *242:75 *242:79 16.5743 
13 *242:79 *242:81 12.5321 
14 *242:81 *242:85 23.2443 
15 *242:85 *1314:CLK 38 
16 *242:85 *1313:CLK 43.7793 
17 *242:81 *1307:CLK 23 
18 *242:79 *1308:CLK 23 
19 *242:75 *1312:CLK 48.295 
*END

*D_NET *243 0.0138131
*CONN
*I *1289:CLK I *D sky130_fd_sc_hd__dfrtp_1
*I *1288:CLK I *D sky130_fd_sc_hd__dfrtp_1
*I *1290:CLK I *D sky130_fd_sc_hd__dfrtp_1
*I *1317:CLK I *D sky130_fd_sc_hd__dfrtp_1
*I *1326:CLK I *D sky130_fd_sc_hd__dfrtp_1
*I *1325:CLK I *D sky130_fd_sc_hd__dfrtp_1
*I *1322:CLK I *D sky130_fd_sc_hd__dfrtp_1
*I *1315:CLK I *D sky130_fd_sc_hd__dfrtp_1
*I *1311:CLK I *D sky130_fd_sc_hd__dfrtp_1
*I *1310:CLK I *D sky130_fd_sc_hd__dfrtp_1
*I *1356:X O *D sky130_fd_sc_hd__clkbuf_16
*CAP
1 *1289:CLK 0.000283109
2 *1288:CLK 0.0001969
3 *1290:CLK 6.97367e-05
4 *1317:CLK 0
5 *1326:CLK 6.32514e-05
6 *1325:CLK 0.000451261
7 *1322:CLK 2.07933e-05
8 *1315:CLK 4.47061e-05
9 *1311:CLK 9.12162e-05
10 *1310:CLK 0.000164523
11 *1356:X 9.45929e-05
12 *243:112 0.000783867
13 *243:97 0.000832095
14 *243:86 0.000780918
15 *243:62 0.0011917
16 *243:49 0.00102632
17 *243:43 0.000836971
18 *243:30 0.00048276
19 *243:19 0.000610516
20 *243:8 0.000526575
21 *1288:CLK *1288:RESET_B 0.000271909
22 *1288:CLK *305:26 0.000102116
23 *1310:CLK *326:35 5.86006e-05
24 *1315:CLK *1207:A1 0.000100477
25 *1315:CLK *277:20 6.58338e-05
26 *1322:CLK *304:18 1.12349e-05
27 *1325:CLK *256:234 0.000198252
28 *1325:CLK *337:10 0
29 *243:19 *326:35 5.77294e-05
30 *243:19 *326:48 0
31 *243:43 *256:126 0
32 *243:43 *326:48 0
33 *243:49 *1205:A0 0.000652956
34 *243:49 *1219:A0 0.000232187
35 *243:49 *256:150 9.69758e-05
36 *243:49 *304:18 2.46906e-05
37 *243:49 *343:10 0.000269781
38 *243:62 *1219:A0 0.000188927
39 *243:62 *277:10 0
40 *243:62 *304:18 9.58908e-05
41 *243:62 *325:101 6.25133e-05
42 *243:86 *1136:A1 0
43 *243:86 *1308:RESET_B 0
44 *243:86 *256:126 0
45 *243:86 *301:12 0.000171906
46 *243:86 *326:48 0
47 *243:97 *1136:A1 0
48 *243:97 *1308:RESET_B 0
49 *243:112 *1134:A1 0.000144494
50 *243:112 *1290:RESET_B 4.89921e-05
51 *243:112 *299:18 0.000375595
52 *243:112 *350:8 4.18667e-05
53 *1134:S *243:112 4.3198e-05
54 *1226:A *1325:CLK 2.9733e-05
55 *1228:A *1326:CLK 9.84851e-05
56 *1288:D *1288:CLK 7.87243e-05
57 *1289:D *1289:CLK 6.17437e-06
58 *1290:D *1290:CLK 1.84831e-05
59 *1290:D *243:112 0.000125182
60 *1311:D *1311:CLK 8.26478e-05
61 *1325:D *1325:CLK 3.22051e-05
62 *1326:D *1326:CLK 0.000145238
63 *32:10 *1288:CLK 0.000158796
64 *32:10 *1289:CLK 0.000158796
65 *58:10 *243:30 0.000110258
66 *58:10 *243:43 1.0092e-05
67 *65:10 *243:62 8.29264e-05
68 *126:180 *1325:CLK 0
69 *126:180 *243:62 0
70 *145:67 *1290:CLK 0.000104578
71 *145:67 *243:112 0.000548439
72 *188:10 *1310:CLK 4.334e-05
73 *188:10 *243:8 8.91468e-07
74 *192:10 *243:43 4.83192e-05
75 *194:10 *243:86 0
76 *203:8 *243:62 3.98887e-05
77 *239:62 *1310:CLK 2.19246e-05
*RES
1 *1356:X *243:8 39.0979 
2 *243:8 *1310:CLK 41.6664 
3 *243:8 *243:19 5.075 
4 *243:19 *1311:CLK 40.0507 
5 *243:19 *243:30 5.075 
6 *243:30 *1315:CLK 39.595 
7 *243:30 *243:43 3.66643 
8 *243:43 *243:49 25.1707 
9 *243:49 *1322:CLK 23.4971 
10 *243:49 *243:62 28.8164 
11 *243:62 *1325:CLK 45.975 
12 *243:62 *1326:CLK 40.0507 
13 *243:43 *243:86 5.77929 
14 *243:86 *1317:CLK 38 
15 *243:86 *243:97 23.5964 
16 *243:97 *1290:CLK 25.0507 
17 *243:97 *243:112 27.2214 
18 *243:112 *1288:CLK 43.7586 
19 *243:112 *1289:CLK 42.6814 
*END

*D_NET *244 0.0106522
*CONN
*I *1346:CLK I *D sky130_fd_sc_hd__dfrtp_1
*I *1327:CLK I *D sky130_fd_sc_hd__dfrtp_1
*I *1329:CLK I *D sky130_fd_sc_hd__dfrtp_1
*I *1332:CLK I *D sky130_fd_sc_hd__dfrtp_1
*I *1330:CLK I *D sky130_fd_sc_hd__dfrtp_1
*I *1331:CLK I *D sky130_fd_sc_hd__dfrtp_1
*I *1357:X O *D sky130_fd_sc_hd__clkbuf_16
*CAP
1 *1346:CLK 0.000145415
2 *1327:CLK 0
3 *1329:CLK 5.60213e-05
4 *1332:CLK 0.000334545
5 *1330:CLK 5.93403e-05
6 *1331:CLK 0.000565553
7 *1357:X 7.6311e-05
8 *244:50 0.0010167
9 *244:46 0.00139636
10 *244:36 0.00123947
11 *244:10 0.00141888
12 *244:8 0.00119413
13 *1329:CLK *1329:RESET_B 2.93845e-05
14 *1330:CLK *1237:A0 0.000179413
15 *1330:CLK *1330:RESET_B 0.000323745
16 *1331:CLK *1160:A0 9.65159e-05
17 *1331:CLK *1330:RESET_B 3.64813e-05
18 *1332:CLK *1332:RESET_B 0
19 *244:8 *1094:B_N 3.71369e-05
20 *244:10 *1091:A_N 9.11368e-05
21 *244:10 *275:8 3.36703e-05
22 *244:10 *295:29 0
23 *244:10 *363:12 0.000185351
24 *244:36 *1091:A_N 0.000127272
25 *244:46 *1327:RESET_B 0.000255258
26 *244:46 *361:10 1.58283e-05
27 *244:50 *1327:RESET_B 0
28 *244:50 *256:673 0
29 *244:50 *280:21 0.000167522
30 *244:50 *295:16 8.62876e-05
31 *244:50 *296:10 0
32 *244:50 *361:10 0
33 *72:10 *1332:CLK 0
34 *72:10 *244:50 0
35 *75:8 *1332:CLK 8.1531e-05
36 *99:51 *1346:CLK 0.000272823
37 *102:38 *1346:CLK 0.000346351
38 *102:38 *244:36 0.000541817
39 *126:115 *244:10 0
40 *126:115 *244:36 0
41 *126:117 *244:10 0
42 *126:136 *1331:CLK 7.44257e-05
43 *204:8 *244:50 0.000167522
*RES
1 *1357:X *244:8 39.0979 
2 *244:8 *244:10 14.935 
3 *244:10 *1331:CLK 47.1143 
4 *244:10 *1330:CLK 41.48 
5 *244:8 *244:36 8.59643 
6 *244:36 *244:46 26.7657 
7 *244:46 *244:50 26.4136 
8 *244:50 *1332:CLK 43.7793 
9 *244:50 *1329:CLK 39.1186 
10 *244:46 *1327:CLK 23 
11 *244:36 *1346:CLK 42.7229 
*END

*D_NET *245 0.0096464
*CONN
*I *1333:CLK I *D sky130_fd_sc_hd__dfrtp_1
*I *1343:CLK I *D sky130_fd_sc_hd__dfrtp_1
*I *1339:CLK I *D sky130_fd_sc_hd__dfrtp_1
*I *1338:CLK I *D sky130_fd_sc_hd__dfrtp_1
*I *1345:CLK I *D sky130_fd_sc_hd__dfrtp_1
*I *1337:CLK I *D sky130_fd_sc_hd__dfrtp_1
*I *1344:CLK I *D sky130_fd_sc_hd__dfrtp_1
*I *1358:X O *D sky130_fd_sc_hd__clkbuf_16
*CAP
1 *1333:CLK 0.000197078
2 *1343:CLK 0.000840075
3 *1339:CLK 0
4 *1338:CLK 0
5 *1345:CLK 6.93278e-05
6 *1337:CLK 9.97691e-05
7 *1344:CLK 3.76058e-05
8 *1358:X 0.000753747
9 *245:69 0.00144203
10 *245:52 0.000826801
11 *245:36 6.93278e-05
12 *245:34 0.00079992
13 *245:14 0.000317595
14 *245:8 0.00131196
15 *245:8 *1404:A 2.93747e-05
16 *245:8 *273:10 0.000226306
17 *245:14 *1344:RESET_B 0
18 *245:34 *309:6 2.46906e-05
19 *1249:A1 *245:14 3.64246e-05
20 *1249:A1 *245:34 0.0002778
21 *1250:A *1337:CLK 5.56279e-05
22 *1337:D *1337:CLK 3.22051e-05
23 *1339:D *245:69 2.93335e-05
24 *1343:D *1343:CLK 1.42726e-05
25 *30:12 *245:52 5.43858e-05
26 *30:20 *245:34 6.84968e-05
27 *30:20 *245:52 0.000149162
28 *97:14 *1333:CLK 0.000173083
29 *97:30 *1333:CLK 6.17437e-06
30 *116:29 *1343:CLK 7.48505e-05
31 *126:72 *1333:CLK 0.000189005
32 *126:72 *245:69 0.000481523
33 *128:12 *1333:CLK 0.000229801
34 *130:40 *1333:CLK 0.000181268
35 *130:40 *245:52 0
36 *130:40 *245:69 0.000445174
37 *215:8 *245:14 5.72082e-05
38 *218:10 *245:52 4.49961e-05
*RES
1 *1358:X *245:8 33.1707 
2 *245:8 *245:14 33.6664 
3 *245:14 *1344:CLK 23.6214 
4 *245:14 *1337:CLK 25.0507 
5 *245:8 *245:34 21.2143 
6 *245:34 *245:36 15 
7 *245:36 *1345:CLK 24.0979 
8 *245:36 *1338:CLK 23 
9 *245:34 *245:52 23.5964 
10 *245:52 *1339:CLK 23 
11 *245:52 *245:69 25.7507 
12 *245:69 *1343:CLK 49.9314 
13 *245:69 *1333:CLK 44.5871 
*END

*D_NET *246 0.0106209
*CONN
*I *1347:CLK I *D sky130_fd_sc_hd__dfrtp_1
*I *1321:CLK I *D sky130_fd_sc_hd__dfrtp_1
*I *1319:CLK I *D sky130_fd_sc_hd__dfrtp_1
*I *1318:CLK I *D sky130_fd_sc_hd__dfrtp_1
*I *1320:CLK I *D sky130_fd_sc_hd__dfrtp_1
*I *1323:CLK I *D sky130_fd_sc_hd__dfrtp_1
*I *1359:X O *D sky130_fd_sc_hd__clkbuf_16
*CAP
1 *1347:CLK 0
2 *1321:CLK 1.50869e-05
3 *1319:CLK 0
4 *1318:CLK 0
5 *1320:CLK 0
6 *1323:CLK 3.46918e-05
7 *1359:X 0.000122788
8 *246:95 0.000726303
9 *246:68 0.000409134
10 *246:58 0.000791071
11 *246:45 0.000915509
12 *246:26 0.0011293
13 *246:20 0.00138947
14 *246:6 0.00166244
15 *1323:CLK *301:12 6.17437e-06
16 *1323:CLK *301:25 2.93845e-05
17 *246:20 *367:23 1.9054e-05
18 *246:26 *301:25 0
19 *246:26 *368:23 0
20 *246:45 *299:18 9.79925e-05
21 *246:45 *299:31 0.000105378
22 *246:45 *348:8 2.79004e-05
23 *246:58 *1319:RESET_B 0.000404323
24 *246:58 *372:10 1.24298e-05
25 *246:68 *1213:A0 0.000233359
26 *246:68 *1215:A0 0.000100477
27 *246:68 *305:26 0.000230726
28 *246:68 *372:10 4.73379e-05
29 *246:95 *256:451 0.000106993
30 *1108:A1 *246:95 9.84794e-05
31 *1218:A *1321:CLK 1.11037e-05
32 *1218:A *246:20 1.35999e-05
33 *1218:A *246:26 5.58003e-05
34 *1318:D *246:68 3.22051e-05
35 *1320:D *246:58 0.000172016
36 *1321:D *246:20 5.72888e-05
37 *1321:D *246:26 3.26241e-05
38 *62:10 *246:68 3.50862e-06
39 *98:14 *246:95 0.000114113
40 *99:43 *246:20 9.80952e-05
41 *102:30 *246:95 3.54165e-05
42 *102:38 *246:95 8.93489e-05
43 *121:10 *246:95 1.14452e-05
44 *123:10 *246:95 0.000351608
45 *124:6 *246:95 0.000151874
46 *126:48 *246:95 9.03054e-05
47 *126:199 *246:26 0.000165384
48 *126:203 *246:26 0
49 *126:216 *246:45 0
50 *126:223 *246:68 2.33782e-05
51 *126:233 *246:68 6.16595e-05
52 *131:16 *246:95 7.72342e-05
53 *196:10 *246:68 0.000143676
54 *198:12 *246:26 0.000113398
55 *200:10 *246:26 0
56 *200:10 *246:45 0
*RES
1 *1359:X *246:6 24.5743 
2 *246:6 *246:20 43.7543 
3 *246:20 *246:26 26.3307 
4 *246:26 *1323:CLK 38.6214 
5 *246:26 *246:45 25.8129 
6 *246:45 *1320:CLK 23 
7 *246:45 *246:58 10.8129 
8 *246:58 *246:68 40.3986 
9 *246:68 *1318:CLK 23 
10 *246:58 *1319:CLK 23 
11 *246:20 *1321:CLK 23.4971 
12 *246:6 *246:95 46.7579 
13 *246:95 *1347:CLK 23 
*END

*D_NET *247 0.00734477
*CONN
*I *1334:CLK I *D sky130_fd_sc_hd__dfrtp_1
*I *1336:CLK I *D sky130_fd_sc_hd__dfrtp_1
*I *1335:CLK I *D sky130_fd_sc_hd__dfrtp_1
*I *1341:CLK I *D sky130_fd_sc_hd__dfrtp_1
*I *1342:CLK I *D sky130_fd_sc_hd__dfrtp_1
*I *1340:CLK I *D sky130_fd_sc_hd__dfrtp_4
*I *1348:CLK I *D sky130_fd_sc_hd__dfrtp_1
*I *1360:X O *D sky130_fd_sc_hd__clkbuf_16
*CAP
1 *1334:CLK 0
2 *1336:CLK 0.000258621
3 *1335:CLK 0
4 *1341:CLK 0
5 *1342:CLK 0
6 *1340:CLK 3.12761e-05
7 *1348:CLK 0.000296995
8 *1360:X 0.000584511
9 *247:68 0.000685776
10 *247:64 0.000739674
11 *247:48 0.000530117
12 *247:36 0.000584926
13 *247:32 0.000705082
14 *247:21 0.000507858
15 *247:8 0.00102034
16 *1348:CLK *256:339 0
17 *247:32 *256:327 3.04568e-05
18 *247:32 *256:335 0
19 *247:48 *256:315 0.000185428
20 *247:48 *256:327 0
21 *247:64 *256:327 7.82517e-05
22 *247:68 *357:8 0.000166129
23 *1244:A *247:64 7.87147e-05
24 *1258:A2 *247:8 1.05235e-05
25 *1266:A1 *247:48 0
26 *1336:D *1336:CLK 0.000101432
27 *1336:D *247:68 4.98089e-05
28 *1340:D *1340:CLK 2.93431e-05
29 *1341:D *247:36 7.40718e-05
30 *1341:D *247:48 3.22051e-05
31 *1342:D *247:48 3.53115e-05
32 *1348:D *1348:CLK 1.92253e-05
33 *30:58 *247:68 2.13217e-05
34 *30:71 *247:68 5.16956e-05
35 *98:89 *247:8 5.70419e-05
36 *99:8 *247:36 0.000103405
37 *99:8 *247:48 5.40337e-05
38 *102:14 *247:64 6.17437e-06
39 *102:14 *247:68 0
40 *126:64 *1348:CLK 3.05299e-05
41 *127:60 *1348:CLK 0
42 *127:60 *247:21 0
43 *139:27 *247:8 0.000103647
44 *211:10 *247:68 4.04245e-05
45 *212:10 *247:68 4.0421e-05
46 *228:10 *247:48 0
*RES
1 *1360:X *247:8 47.6736 
2 *247:8 *1348:CLK 43.365 
3 *247:8 *247:21 2.25786 
4 *247:21 *1340:CLK 38.6214 
5 *247:21 *247:32 6.13143 
6 *247:32 *247:36 17.0507 
7 *247:36 *247:48 39.6736 
8 *247:48 *1342:CLK 23 
9 *247:36 *1341:CLK 23 
10 *247:32 *247:64 21.5664 
11 *247:64 *247:68 23.9486 
12 *247:68 *1335:CLK 38 
13 *247:68 *1336:CLK 43.4271 
14 *247:64 *1334:CLK 23 
*END

*D_NET *248 0.000265015
*CONN
*I *1076:A I *D sky130_fd_sc_hd__buf_4
*I *1408:X O *D sky130_fd_sc_hd__clkbuf_1
*CAP
1 *1076:A 5.59489e-05
2 *1408:X 5.59948e-05
3 *248:8 0.000111944
4 *34:8 *248:8 4.11274e-05
*RES
1 *1408:X *248:8 39.2014 
2 *248:8 *1076:A 39.2014 
*END

*D_NET *249 0.00589384
*CONN
*I *1176:A2 I *D sky130_fd_sc_hd__a21o_1
*I *1170:A2 I *D sky130_fd_sc_hd__a22o_1
*I *1171:A2 I *D sky130_fd_sc_hd__o221a_2
*I *1409:X O *D sky130_fd_sc_hd__buf_1
*CAP
1 *1176:A2 0.000476575
2 *1170:A2 0.000111433
3 *1171:A2 0.000179915
4 *1409:X 0.00115514
5 *249:16 0.0004544
6 *249:14 0.000639627
7 *249:12 0.00115514
8 *1170:A2 *1166:A 5.3304e-05
9 *1170:A2 *320:34 0.00011189
10 *1171:A2 *320:34 0.000200542
11 *1176:A2 *1166:A 1.0092e-05
12 *1176:A2 *1176:B1 2.44419e-05
13 *1176:A2 *1361:A 0.000127662
14 *249:12 *1302:RESET_B 0.000139707
15 *249:16 *1166:A 0.000301149
16 *249:16 *320:34 7.65052e-05
17 *1170:A1 *1170:A2 0.000184607
18 *1190:A *249:12 5.82853e-05
19 *1302:D *249:12 5.58003e-05
20 *1316:CLK *1176:A2 2.40267e-05
21 *1316:D *1176:A2 2.86326e-05
22 *49:10 *249:12 2.10502e-05
23 *59:10 *1176:A2 8.36198e-05
24 *93:147 *1176:A2 5.90675e-06
25 *168:27 *1170:A2 9.41704e-05
26 *168:27 *1171:A2 0.000111276
27 *171:10 *249:16 8.93364e-06
*RES
1 *1409:X *249:12 41.1871 
2 *249:12 *249:14 15 
3 *249:14 *249:16 4.37071 
4 *249:16 *1171:A2 41.7286 
5 *249:16 *1170:A2 41.6457 
6 *249:14 *1176:A2 46.2236 
*END

*D_NET *250 0.00106065
*CONN
*I *1186:B1 I *D sky130_fd_sc_hd__o211a_1
*I *1189:A1 I *D sky130_fd_sc_hd__mux2_1
*I *1410:X O *D sky130_fd_sc_hd__clkbuf_1
*CAP
1 *1186:B1 5.37909e-05
2 *1189:A1 0
3 *1410:X 0.000310199
4 *250:14 6.90834e-05
5 *250:8 0.000433073
6 *1189:S *250:14 0.000114083
7 *180:28 *1186:B1 3.91386e-05
8 *181:10 *1186:B1 2.18162e-05
9 *181:10 *250:8 1.94693e-05
*RES
1 *1410:X *250:8 28.4064 
2 *250:8 *250:14 31.5536 
3 *250:14 *1189:A1 23 
4 *250:8 *1186:B1 24.1186 
*END

*D_NET *251 0.0032449
*CONN
*I *1187:B1 I *D sky130_fd_sc_hd__a22o_1
*I *1186:A1 I *D sky130_fd_sc_hd__o211a_1
*I *1191:A1 I *D sky130_fd_sc_hd__mux2_1
*I *1411:X O *D sky130_fd_sc_hd__buf_1
*CAP
1 *1187:B1 0.000346448
2 *1186:A1 0
3 *1191:A1 0
4 *1411:X 0.000224475
5 *251:23 0.000165764
6 *251:15 0.000594591
7 *251:8 0.000306854
8 *1187:B1 *1187:A2 5.79226e-05
9 *251:8 *1191:A0 5.50106e-05
10 *251:8 *346:14 0.000228903
11 *251:15 *1191:A0 0.000187129
12 *1188:A1 *1187:B1 0.000141682
13 *1188:B1 *1187:B1 6.39489e-06
14 *1188:C1 *1187:B1 0
15 *1189:S *251:23 0
16 *93:147 *251:23 0.000191166
17 *93:164 *251:23 8.11552e-05
18 *179:8 *1187:B1 3.85196e-05
19 *180:10 *251:8 2.65879e-05
20 *180:10 *251:15 1.79538e-05
21 *180:10 *251:23 5.26101e-05
22 *180:28 *251:23 5.70419e-05
23 *181:10 *251:23 5.41288e-05
24 *183:8 *1187:B1 0.00031373
25 *184:12 *1187:B1 1.29013e-05
26 *184:12 *251:15 2.72257e-05
27 *186:10 *251:8 5.67058e-05
*RES
1 *1411:X *251:8 28.4064 
2 *251:8 *1191:A1 23 
3 *251:8 *251:15 2.52714 
4 *251:15 *251:23 34.7643 
5 *251:23 *1186:A1 23 
6 *251:15 *1187:B1 31.4929 
*END

*D_NET *252 0.00393848
*CONN
*I *1193:A2 I *D sky130_fd_sc_hd__a21o_1
*I *1187:A2 I *D sky130_fd_sc_hd__a22o_1
*I *1188:A2 I *D sky130_fd_sc_hd__o221a_2
*I *1412:X O *D sky130_fd_sc_hd__buf_1
*CAP
1 *1193:A2 8.52851e-05
2 *1187:A2 0.00029207
3 *1188:A2 9.7451e-05
4 *1412:X 0.000864154
5 *252:12 0.000763678
6 *252:10 0.0013236
7 *252:12 *346:27 0
8 *1187:B1 *1187:A2 5.79226e-05
9 *1188:A1 *1187:A2 0.000282484
10 *1312:CLK *252:12 0
11 *51:10 *252:12 0
12 *93:164 *1188:A2 0
13 *93:164 *1193:A2 7.95762e-05
14 *93:164 *252:12 0
15 *93:168 *252:10 1.94812e-05
16 *179:8 *1187:A2 5.44267e-05
17 *180:28 *1188:A2 0
18 *182:10 *1188:A2 1.83564e-05
19 *242:75 *252:12 0
*RES
1 *1412:X *252:10 49.7036 
2 *252:10 *252:12 5.95536 
3 *252:12 *1188:A2 39.2946 
4 *252:12 *1187:A2 43.3029 
5 *252:10 *1193:A2 40.0714 
*END

*D_NET *253 0.00459241
*CONN
*I *1200:A1 I *D sky130_fd_sc_hd__mux2_1
*I *1129:B1 I *D sky130_fd_sc_hd__o211a_1
*I *1413:X O *D sky130_fd_sc_hd__clkbuf_1
*CAP
1 *1200:A1 0
2 *1129:B1 0.000184141
3 *1413:X 0.000992189
4 *253:29 0.000373221
5 *253:12 0.000735746
6 *253:6 0.00117057
7 *253:6 *352:6 2.81612e-05
8 *1312:CLK *253:12 5.86204e-05
9 *1313:CLK *253:6 0.00014384
10 *1313:D *253:6 8.56042e-05
11 *141:24 *1129:B1 0.000227783
12 *141:24 *253:29 0.000274132
13 *142:16 *253:12 3.78938e-05
14 *143:10 *253:12 3.6608e-05
15 *145:20 *253:6 0.000141095
16 *145:39 *253:29 8.29264e-05
17 *190:14 *253:12 1.9877e-05
*RES
1 *1413:X *253:6 36.485 
2 *253:6 *253:12 32.9621 
3 *253:12 *1129:B1 26.2521 
4 *253:12 *253:29 35.8621 
5 *253:29 *1200:A1 23 
*END

*D_NET *254 0.00421239
*CONN
*I *1202:A1 I *D sky130_fd_sc_hd__mux2_1
*I *1130:B1 I *D sky130_fd_sc_hd__a22o_1
*I *1129:A1 I *D sky130_fd_sc_hd__o211a_1
*I *1414:X O *D sky130_fd_sc_hd__buf_1
*CAP
1 *1202:A1 0
2 *1130:B1 0.000423891
3 *1129:A1 0.000278706
4 *1414:X 0.000563741
5 *254:12 0.000770414
6 *254:10 0.000217892
7 *254:8 0.000713816
8 *1129:A1 *353:8 0
9 *1130:B1 *1130:A2 0.000351189
10 *1130:B1 *1202:A0 6.98147e-05
11 *1130:B1 *255:23 6.60115e-05
12 *1130:B1 *352:14 5.90675e-06
13 *254:8 *1126:A 2.4754e-05
14 *254:10 *1126:A 0
15 *254:12 *1126:A 0
16 *254:12 *255:37 0
17 *1130:A1 *1130:B1 1.85803e-05
18 *19:15 *254:8 5.67058e-05
19 *93:168 *1129:A1 9.05525e-05
20 *93:189 *1129:A1 7.26246e-05
21 *93:189 *1130:B1 9.67842e-05
22 *140:10 *254:8 0.000315852
23 *140:10 *254:10 0
24 *140:10 *254:12 0
25 *145:20 *1129:A1 1.59312e-05
26 *145:20 *1130:B1 5.50049e-05
27 *145:20 *254:12 4.21594e-06
28 *191:10 *254:10 0
*RES
1 *1414:X *254:8 48.6264 
2 *254:8 *254:10 2.61 
3 *254:10 *254:12 1.20143 
4 *254:12 *1129:A1 43.4271 
5 *254:12 *1130:B1 48.5436 
6 *254:10 *1202:A1 38 
*END

*D_NET *255 0.00383078
*CONN
*I *1130:A2 I *D sky130_fd_sc_hd__a22o_1
*I *1131:A2 I *D sky130_fd_sc_hd__o221a_2
*I *1204:A1 I *D sky130_fd_sc_hd__a21o_1
*I *1415:X O *D sky130_fd_sc_hd__buf_1
*CAP
1 *1130:A2 9.74317e-05
2 *1131:A2 0
3 *1204:A1 0
4 *1415:X 6.62903e-05
5 *255:37 0.00027067
6 *255:23 0.000863298
7 *255:12 0.000595282
8 *255:8 0.000166376
9 *255:12 *1204:B1 0.00010018
10 *255:23 *1202:A0 0.000228001
11 *255:23 *1204:B1 0.000130423
12 *255:23 *1394:A 2.93747e-05
13 *1130:A1 *1130:A2 5.44329e-05
14 *1130:B1 *1130:A2 0.000351189
15 *1130:B1 *255:23 6.60115e-05
16 *18:13 *255:8 0
17 *56:8 *255:8 0
18 *93:189 *255:23 0.000228522
19 *140:14 *1130:A2 0.000275875
20 *140:28 *255:37 3.21567e-05
21 *143:10 *255:37 4.41821e-06
22 *145:20 *255:37 8.54184e-05
23 *191:10 *255:23 0.000185428
24 *254:12 *255:37 0
*RES
1 *1415:X *255:8 39.2014 
2 *255:8 *255:12 16.5743 
3 *255:12 *1204:A1 23 
4 *255:12 *255:23 11.2686 
5 *255:23 *255:37 35.1993 
6 *255:37 *1131:A2 23 
7 *255:23 *1130:A2 27.4536 
*END

*D_NET *256 0.0930411
*CONN
*I *1313:RESET_B I *D sky130_fd_sc_hd__dfrtp_1
*I *1314:RESET_B I *D sky130_fd_sc_hd__dfrtp_1
*I *1307:RESET_B I *D sky130_fd_sc_hd__dfrtp_1
*I *1351:RESET_B I *D sky130_fd_sc_hd__dfrtp_4
*I *1304:RESET_B I *D sky130_fd_sc_hd__dfrtp_1
*I *1350:RESET_B I *D sky130_fd_sc_hd__dfrtp_4
*I *1330:RESET_B I *D sky130_fd_sc_hd__dfrtp_1
*I *1331:RESET_B I *D sky130_fd_sc_hd__dfrtp_1
*I *1298:RESET_B I *D sky130_fd_sc_hd__dfrtp_1
*I *1297:RESET_B I *D sky130_fd_sc_hd__dfrtp_1
*I *1349:RESET_B I *D sky130_fd_sc_hd__dfrtp_4
*I *1287:RESET_B I *D sky130_fd_sc_hd__dfrtp_1
*I *1327:RESET_B I *D sky130_fd_sc_hd__dfrtp_1
*I *1328:RESET_B I *D sky130_fd_sc_hd__dfrtp_1
*I *1305:RESET_B I *D sky130_fd_sc_hd__dfrtp_1
*I *1332:RESET_B I *D sky130_fd_sc_hd__dfrtp_1
*I *1329:RESET_B I *D sky130_fd_sc_hd__dfrtp_1
*I *1299:RESET_B I *D sky130_fd_sc_hd__dfrtp_1
*I *1306:RESET_B I *D sky130_fd_sc_hd__dfrtp_1
*I *1308:RESET_B I *D sky130_fd_sc_hd__dfrtp_1
*I *1312:RESET_B I *D sky130_fd_sc_hd__dfrtp_1
*I *1290:RESET_B I *D sky130_fd_sc_hd__dfrtp_1
*I *1288:RESET_B I *D sky130_fd_sc_hd__dfrtp_1
*I *1317:RESET_B I *D sky130_fd_sc_hd__dfrtp_1
*I *1315:RESET_B I *D sky130_fd_sc_hd__dfrtp_1
*I *1311:RESET_B I *D sky130_fd_sc_hd__dfrtp_1
*I *1347:RESET_B I *D sky130_fd_sc_hd__dfrtp_1
*I *1346:RESET_B I *D sky130_fd_sc_hd__dfrtp_1
*I *1345:RESET_B I *D sky130_fd_sc_hd__dfrtp_1
*I *1344:RESET_B I *D sky130_fd_sc_hd__dfrtp_1
*I *1343:RESET_B I *D sky130_fd_sc_hd__dfrtp_1
*I *1289:RESET_B I *D sky130_fd_sc_hd__dfrtp_1
*I *1318:RESET_B I *D sky130_fd_sc_hd__dfrtp_1
*I *1342:RESET_B I *D sky130_fd_sc_hd__dfrtp_1
*I *1341:RESET_B I *D sky130_fd_sc_hd__dfrtp_1
*I *1336:RESET_B I *D sky130_fd_sc_hd__dfrtp_1
*I *1335:RESET_B I *D sky130_fd_sc_hd__dfrtp_1
*I *1334:RESET_B I *D sky130_fd_sc_hd__dfrtp_1
*I *1340:RESET_B I *D sky130_fd_sc_hd__dfrtp_4
*I *1333:RESET_B I *D sky130_fd_sc_hd__dfrtp_1
*I *1339:RESET_B I *D sky130_fd_sc_hd__dfrtp_1
*I *1338:RESET_B I *D sky130_fd_sc_hd__dfrtp_1
*I *1337:RESET_B I *D sky130_fd_sc_hd__dfrtp_1
*I *1348:RESET_B I *D sky130_fd_sc_hd__dfrtp_1
*I *1319:RESET_B I *D sky130_fd_sc_hd__dfrtp_1
*I *1320:RESET_B I *D sky130_fd_sc_hd__dfrtp_1
*I *1323:RESET_B I *D sky130_fd_sc_hd__dfrtp_1
*I *1322:RESET_B I *D sky130_fd_sc_hd__dfrtp_1
*I *1321:RESET_B I *D sky130_fd_sc_hd__dfrtp_1
*I *1326:RESET_B I *D sky130_fd_sc_hd__dfrtp_1
*I *1325:RESET_B I *D sky130_fd_sc_hd__dfrtp_1
*I *1310:RESET_B I *D sky130_fd_sc_hd__dfrtp_1
*I *1324:RESET_B I *D sky130_fd_sc_hd__dfrtp_1
*I *1303:RESET_B I *D sky130_fd_sc_hd__dfrtp_1
*I *1309:RESET_B I *D sky130_fd_sc_hd__dfrtp_1
*I *1316:RESET_B I *D sky130_fd_sc_hd__dfrtp_1
*I *1302:RESET_B I *D sky130_fd_sc_hd__dfrtp_1
*I *1300:RESET_B I *D sky130_fd_sc_hd__dfrtp_1
*I *1301:RESET_B I *D sky130_fd_sc_hd__dfrtp_1
*I *1295:RESET_B I *D sky130_fd_sc_hd__dfrtp_1
*I *1296:RESET_B I *D sky130_fd_sc_hd__dfrtp_1
*I *1294:RESET_B I *D sky130_fd_sc_hd__dfrtp_1
*I *1293:RESET_B I *D sky130_fd_sc_hd__dfrtp_1
*I *1292:RESET_B I *D sky130_fd_sc_hd__dfrtp_1
*I *1291:RESET_B I *D sky130_fd_sc_hd__dfrtp_1
*I *1416:X O *D sky130_fd_sc_hd__buf_12
*CAP
1 *1313:RESET_B 0.000159275
2 *1314:RESET_B 6.26383e-05
3 *1307:RESET_B 2.03428e-05
4 *1351:RESET_B 0.000307176
5 *1304:RESET_B 0.000240412
6 *1350:RESET_B 0
7 *1330:RESET_B 0.000669292
8 *1331:RESET_B 0
9 *1298:RESET_B 3.34366e-05
10 *1297:RESET_B 3.29125e-05
11 *1349:RESET_B 0.000312528
12 *1287:RESET_B 0.000273134
13 *1327:RESET_B 0.000760961
14 *1328:RESET_B 4.57585e-05
15 *1305:RESET_B 4.10072e-05
16 *1332:RESET_B 0.000291561
17 *1329:RESET_B 0.000701851
18 *1299:RESET_B 0.000166749
19 *1306:RESET_B 0.000384574
20 *1308:RESET_B 0.000804396
21 *1312:RESET_B 0.000656738
22 *1290:RESET_B 1.43353e-05
23 *1288:RESET_B 0.000490546
24 *1317:RESET_B 0.000122037
25 *1315:RESET_B 0
26 *1311:RESET_B 5.42878e-05
27 *1347:RESET_B 0.00014859
28 *1346:RESET_B 6.8092e-05
29 *1345:RESET_B 0
30 *1344:RESET_B 0.000336752
31 *1343:RESET_B 1.98096e-05
32 *1289:RESET_B 0.000339374
33 *1318:RESET_B 0
34 *1342:RESET_B 1.42354e-05
35 *1341:RESET_B 9.0526e-06
36 *1336:RESET_B 0.000296279
37 *1335:RESET_B 6.84591e-05
38 *1334:RESET_B 6.7278e-05
39 *1340:RESET_B 0
40 *1333:RESET_B 0
41 *1339:RESET_B 0
42 *1338:RESET_B 0
43 *1337:RESET_B 0.000323821
44 *1348:RESET_B 8.52604e-05
45 *1319:RESET_B 0.00130886
46 *1320:RESET_B 0
47 *1323:RESET_B 0
48 *1322:RESET_B 0.000241537
49 *1321:RESET_B 0
50 *1326:RESET_B 2.51449e-05
51 *1325:RESET_B 8.62386e-06
52 *1310:RESET_B 0.00128203
53 *1324:RESET_B 0.00046292
54 *1303:RESET_B 9.7846e-05
55 *1309:RESET_B 0.000313216
56 *1316:RESET_B 0.000747311
57 *1302:RESET_B 0.000721328
58 *1300:RESET_B 0.000100346
59 *1301:RESET_B 6.68793e-05
60 *1295:RESET_B 0.000109812
61 *1296:RESET_B 4.19789e-05
62 *1294:RESET_B 0.000523462
63 *1293:RESET_B 5.86745e-05
64 *1292:RESET_B 0.000271304
65 *1291:RESET_B 0
66 *1416:X 0.00017753
67 *256:821 0.000631925
68 *256:811 0.000843038
69 *256:755 0.00139871
70 *256:737 0.00140277
71 *256:722 0.00109276
72 *256:707 0.00100782
73 *256:705 0.000529389
74 *256:673 0.00108592
75 *256:659 0.000438823
76 *256:639 0.000771614
77 *256:627 0.00140785
78 *256:621 0.0018238
79 *256:607 0.00157413
80 *256:551 0.000760314
81 *256:537 0.000835004
82 *256:525 0.000643934
83 *256:480 0.00112914
84 *256:465 0.00140293
85 *256:459 0.000991218
86 *256:451 0.00155877
87 *256:404 0.000726544
88 *256:394 0.000809678
89 *256:357 0.000623868
90 *256:355 0.000640103
91 *256:353 0.000783448
92 *256:339 0.000815163
93 *256:335 0.000527222
94 *256:331 0.000869233
95 *256:327 0.000874798
96 *256:315 0.000717476
97 *256:311 0.00138265
98 *256:301 0.00160282
99 *256:287 0.0014017
100 *256:280 0.000383575
101 *256:273 0.000536549
102 *256:263 0.00073052
103 *256:256 0.000559883
104 *256:246 0.000614607
105 *256:236 0.000338639
106 *256:234 0.00238329
107 *256:184 0.000682035
108 *256:170 0.000563216
109 *256:168 0.000680892
110 *256:158 0.000838516
111 *256:152 0.000353008
112 *256:150 0.0010118
113 *256:126 0.00090288
114 *256:112 0.00134596
115 *256:100 0.000770446
116 *256:86 0.000559107
117 *256:76 0.000942583
118 *256:60 0.000664942
119 *256:58 0.000958745
120 *256:54 0.000783779
121 *256:37 0.000744272
122 *256:23 0.00131263
123 *256:8 0.000771039
124 *1288:RESET_B *305:26 3.31536e-05
125 *1289:RESET_B *349:8 7.9111e-05
126 *1290:RESET_B *299:18 4.89921e-05
127 *1294:RESET_B *329:23 0
128 *1295:RESET_B *334:6 6.17437e-06
129 *1297:RESET_B *324:10 1.22906e-05
130 *1298:RESET_B *321:8 1.24766e-05
131 *1300:RESET_B *339:8 2.45549e-06
132 *1301:RESET_B *1168:A 9.29579e-06
133 *1302:RESET_B *341:8 3.18272e-05
134 *1303:RESET_B *325:61 5.16074e-05
135 *1303:RESET_B *325:76 3.37228e-05
136 *1307:RESET_B *346:14 4.87918e-05
137 *1308:RESET_B *347:6 5.3304e-05
138 *1308:RESET_B *347:14 4.86151e-05
139 *1308:RESET_B *347:25 3.47781e-05
140 *1309:RESET_B *1377:A 2.93747e-05
141 *1309:RESET_B *325:76 2.31209e-05
142 *1311:RESET_B *289:21 1.24376e-05
143 *1312:RESET_B *1400:A 0.000272715
144 *1312:RESET_B *316:10 0.000234542
145 *1312:RESET_B *351:12 6.4554e-05
146 *1313:RESET_B *353:8 2.91178e-05
147 *1317:RESET_B *301:12 1.04196e-05
148 *1319:RESET_B *371:10 1.41806e-05
149 *1319:RESET_B *372:10 6.89359e-06
150 *1322:RESET_B *1219:A0 0.000135338
151 *1324:RESET_B *293:12 5.58003e-05
152 *1325:RESET_B *364:23 2.8521e-05
153 *1326:RESET_B *366:12 4.83893e-05
154 *1327:RESET_B *1177:A0 0.000199626
155 *1327:RESET_B *330:10 1.13812e-05
156 *1327:RESET_B *361:10 0.000249301
157 *1328:RESET_B *362:14 2.8521e-05
158 *1329:RESET_B *1382:A 9.84851e-05
159 *1329:RESET_B *295:16 0.000409182
160 *1330:RESET_B *1237:A0 0.000121609
161 *1330:RESET_B *322:8 0
162 *1330:RESET_B *358:6 2.95526e-05
163 *1330:RESET_B *358:14 0.000149925
164 *1330:RESET_B *359:27 0.000122515
165 *1332:RESET_B *360:12 0.000138371
166 *1336:RESET_B *286:10 0.000186015
167 *1337:RESET_B *1393:A 0
168 *1337:RESET_B *297:8 0
169 *1344:RESET_B *273:10 0
170 *1346:RESET_B *1273:B1 4.21048e-05
171 *1346:RESET_B *376:10 0.00014006
172 *256:23 *327:29 0
173 *256:54 *333:8 0.000100559
174 *256:60 *335:12 8.58779e-05
175 *256:76 *1150:A 5.58003e-05
176 *256:76 *334:6 4.21362e-05
177 *256:76 *335:12 0.000158796
178 *256:86 *1168:A 0.000145049
179 *256:86 *310:10 3.41301e-05
180 *256:86 *314:10 0.00014384
181 *256:100 *1168:A 0.000114083
182 *256:112 *1168:A 0
183 *256:112 *339:8 1.05235e-05
184 *256:112 *340:16 1.19796e-05
185 *256:126 *341:8 0.00014006
186 *256:150 *1205:A0 3.95976e-05
187 *256:150 *1205:A1 0.000136666
188 *256:150 *324:116 0.000144013
189 *256:150 *343:10 6.31864e-05
190 *256:152 *277:20 0.000179214
191 *256:158 *325:88 0.000300454
192 *256:168 *324:95 0.000347781
193 *256:168 *325:76 0.000125413
194 *256:168 *325:88 0
195 *256:170 *325:76 0.000283309
196 *256:184 *293:12 8.60837e-05
197 *256:184 *325:76 5.48668e-05
198 *256:234 *337:10 5.73309e-05
199 *256:234 *364:23 0.000157868
200 *256:246 *1106:B 0.000192764
201 *256:246 *307:21 0
202 *256:256 *366:12 3.84905e-05
203 *256:273 *369:8 0
204 *256:280 *299:37 4.21252e-05
205 *256:301 *371:10 9.89824e-05
206 *256:311 *370:25 0
207 *256:353 *355:10 0.000141237
208 *256:355 *355:10 4.94404e-05
209 *256:355 *355:18 1.16383e-05
210 *256:357 *297:8 0
211 *256:404 *282:8 0
212 *256:404 *286:10 0.000116314
213 *256:451 *364:23 0.000168831
214 *256:459 *1247:A 1.90333e-05
215 *256:459 *1425:A 0
216 *256:459 *355:48 1.16472e-05
217 *256:465 *355:18 0.000956415
218 *256:480 *355:18 0.000133616
219 *256:525 *277:10 0.000151862
220 *256:525 *277:20 2.52012e-05
221 *256:525 *324:116 0.000172928
222 *256:537 *1136:A1 0
223 *256:537 *324:116 5.19151e-05
224 *256:607 *314:37 0.000190627
225 *256:607 *335:27 2.4754e-05
226 *256:621 *291:12 0
227 *256:621 *326:20 8.57012e-05
228 *256:627 *1110:A 7.77368e-05
229 *256:673 *362:14 2.96976e-05
230 *256:705 *291:12 0.000422847
231 *256:707 *291:12 0.000140884
232 *256:722 *1160:A1 1.94693e-05
233 *256:722 *298:18 0.000198206
234 *256:722 *324:10 2.70366e-05
235 *256:737 *321:8 2.27755e-05
236 *256:755 *321:8 0.000172539
237 *256:755 *322:8 0
238 *256:811 *346:14 8.264e-05
239 *256:821 *313:8 0.000194327
240 o_index[2] *256:357 0.000130212
241 *1108:A1 *256:451 1.79651e-05
242 *1108:C1 *256:451 4.96675e-06
243 *1125:A2 *256:480 0
244 *1144:S *256:23 9.76358e-05
245 *1181:S *256:639 0
246 *1181:S *256:659 0
247 *1181:S *256:673 0
248 *1197:A *256:234 0
249 *1207:S *1308:RESET_B 0.000102638
250 *1207:S *256:126 0.000279506
251 *1219:S *256:150 3.84849e-05
252 *1226:A *256:234 4.39947e-05
253 *1249:A1 *1344:RESET_B 0
254 *1249:A1 *256:480 0
255 *1270:A *1344:RESET_B 4.6318e-06
256 *1270:A *256:480 0.000118797
257 *1276:A1 *256:459 0.000127955
258 *1276:A1 *256:465 2.11066e-05
259 *1287:CLK *256:621 5.61086e-05
260 *1288:CLK *1288:RESET_B 0.000271909
261 *1288:D *1288:RESET_B 1.47709e-05
262 *1292:D *1292:RESET_B 0.000100486
263 *1298:CLK *256:737 9.00429e-05
264 *1298:D *256:737 5.56356e-05
265 *1300:CLK *1300:RESET_B 4.81382e-05
266 *1301:CLK *1301:RESET_B 0
267 *1301:CLK *256:86 3.70187e-05
268 *1301:CLK *256:100 0.000102638
269 *1306:CLK *1306:RESET_B 0.000175807
270 *1324:CLK *1324:RESET_B 8.6745e-05
271 *1324:D *1324:RESET_B 0.000185873
272 *1325:CLK *256:234 0.000198252
273 *1325:D *256:234 6.79616e-05
274 *1328:D *1328:RESET_B 3.76165e-05
275 *1329:CLK *1329:RESET_B 2.93845e-05
276 *1330:CLK *1330:RESET_B 0.000323745
277 *1331:CLK *1330:RESET_B 3.64813e-05
278 *1332:CLK *1332:RESET_B 0
279 *1336:D *1336:RESET_B 7.153e-05
280 *1336:D *256:404 4.52078e-05
281 *1342:D *256:315 2.93845e-05
282 *1347:D *1347:RESET_B 4.08664e-05
283 *1347:D *256:451 0.000100061
284 *1348:CLK *256:339 0
285 *1348:D *1348:RESET_B 1.81777e-05
286 *1351:D *1351:RESET_B 5.50106e-05
287 *1354:A *256:621 0.000278634
288 *30:10 *256:353 0
289 *30:10 *256:355 0
290 *30:12 *256:355 0
291 *30:58 *256:335 0.000194151
292 *30:58 *256:339 0.00011575
293 *30:58 *256:394 9.82196e-05
294 *30:58 *256:404 3.46241e-05
295 *30:71 *256:404 6.38844e-05
296 *34:8 *256:23 0
297 *40:8 *1297:RESET_B 2.46922e-05
298 *40:8 *256:722 6.38268e-05
299 *44:8 *256:86 0
300 *45:8 *1306:RESET_B 4.96024e-05
301 *46:8 *1303:RESET_B 0.000140884
302 *47:10 *256:621 8.62783e-05
303 *66:8 *256:280 4.08641e-05
304 *71:8 *1327:RESET_B 7.58696e-05
305 *71:8 *256:673 1.12863e-05
306 *72:10 *1332:RESET_B 0
307 *85:8 *1344:RESET_B 0
308 *88:14 *256:459 3.30774e-05
309 *90:10 *1349:RESET_B 0
310 *90:10 *256:707 0
311 *92:10 *1351:RESET_B 8.50457e-05
312 *93:6 *256:23 5.12254e-05
313 *93:10 *256:23 2.9938e-05
314 *93:53 *256:23 3.02809e-05
315 *93:66 *1294:RESET_B 0
316 *93:114 *1296:RESET_B 5.3304e-05
317 *93:120 *256:76 0.000111106
318 *93:120 *256:86 0
319 *93:120 *256:112 0.000277714
320 *93:139 *1306:RESET_B 0.000163256
321 *93:139 *256:112 0.000390135
322 *93:164 *256:821 0.000277293
323 *93:218 *1296:RESET_B 4.41021e-05
324 *94:25 *256:621 4.91097e-05
325 *97:14 *256:339 0.000218838
326 *98:39 *256:459 0
327 *99:8 *1341:RESET_B 1.24766e-05
328 *99:8 *256:327 1.23353e-05
329 *99:8 *256:331 1.79728e-05
330 *99:8 *256:394 1.86357e-05
331 *99:43 *256:256 0
332 *99:141 *256:394 0
333 *99:141 *256:404 0
334 *102:14 *256:311 0
335 *102:14 *256:327 4.89774e-05
336 *124:6 *256:451 1.00062e-05
337 *124:14 *256:459 0.000110184
338 *124:34 *1347:RESET_B 1.16797e-05
339 *126:8 *256:627 3.71887e-05
340 *126:10 *256:639 0
341 *126:115 *1332:RESET_B 0
342 *126:117 *1332:RESET_B 0
343 *126:136 *1330:RESET_B 0.00019344
344 *126:169 *256:170 0
345 *126:169 *256:184 0
346 *126:180 *256:168 0
347 *126:180 *256:170 0
348 *126:203 *256:263 0.000270857
349 *126:203 *256:273 0.000184184
350 *126:216 *256:273 0.000255292
351 *126:216 *256:280 0.000361441
352 *126:233 *256:311 0.000139647
353 *126:248 *256:311 0
354 *127:10 *256:480 0.000236448
355 *127:34 *256:480 0.000214412
356 *127:47 *256:480 0.000166728
357 *131:16 *256:451 0.000140927
358 *134:12 *1344:RESET_B 0
359 *138:16 *256:459 2.27289e-05
360 *146:10 *256:537 8.55155e-05
361 *148:8 *1312:RESET_B 4.83192e-05
362 *148:8 *256:537 3.50862e-06
363 *148:8 *256:551 2.56091e-05
364 *149:8 *256:37 2.14486e-05
365 *152:10 *256:37 0.000160125
366 *156:10 *256:23 2.81425e-05
367 *156:10 *256:37 3.31053e-05
368 *158:10 *256:76 5.58003e-05
369 *161:10 *256:60 5.0518e-05
370 *162:18 *1294:RESET_B 0
371 *162:44 *1296:RESET_B 0.000134173
372 *162:55 *1327:RESET_B 0
373 *169:10 *256:112 1.73399e-05
374 *175:8 *256:86 0
375 *176:10 *1303:RESET_B 0.000278083
376 *184:34 *1308:RESET_B 0.000195238
377 *192:10 *256:150 7.64944e-05
378 *193:10 *1306:RESET_B 2.37172e-05
379 *194:10 *1308:RESET_B 0
380 *197:10 *1289:RESET_B 6.00097e-05
381 *197:10 *256:280 4.96024e-05
382 *197:10 *256:287 5.26052e-05
383 *210:8 *256:353 0.000138082
384 *210:8 *256:355 5.70022e-05
385 *213:14 *256:459 4.36547e-05
386 *213:14 *256:465 5.20138e-05
387 *213:41 *256:465 0.000120005
388 *216:20 *1337:RESET_B 0.000191157
389 *216:20 *256:355 0.000102007
390 *216:20 *256:357 0.000726416
391 *228:10 *256:311 1.44546e-05
392 *233:10 *256:459 8.22436e-05
393 *238:8 *1351:RESET_B 3.52642e-05
394 *238:8 *256:621 0
395 *239:50 *256:246 5.79413e-06
396 *239:87 *256:621 0.000111852
397 *239:122 *256:246 2.1798e-05
398 *240:12 *1294:RESET_B 0.000407218
399 *240:14 *1293:RESET_B 9.61708e-05
400 *240:34 *1293:RESET_B 4.21921e-05
401 *240:51 *1351:RESET_B 0
402 *240:51 *256:58 0.000383494
403 *240:51 *256:60 7.35739e-05
404 *240:51 *256:607 1.65153e-05
405 *240:64 *256:607 7.39038e-05
406 *240:79 *1304:RESET_B 1.33487e-05
407 *240:79 *256:607 6.06809e-06
408 *240:90 *256:621 7.25311e-06
409 *240:92 *256:621 7.01552e-06
410 *240:94 *256:707 0
411 *240:120 *256:8 0
412 *240:120 *256:23 0.000141038
413 *240:149 *1295:RESET_B 8.98585e-05
414 *240:149 *256:86 1.51481e-05
415 *241:18 *1349:RESET_B 0
416 *241:18 *256:707 0
417 *242:60 *1306:RESET_B 7.85456e-05
418 *242:79 *256:811 7.1349e-05
419 *242:81 *1307:RESET_B 2.33744e-05
420 *242:81 *256:811 0.000214026
421 *243:43 *256:126 0
422 *243:49 *256:150 9.69758e-05
423 *243:86 *1308:RESET_B 0
424 *243:86 *256:126 0
425 *243:97 *1308:RESET_B 0
426 *243:112 *1290:RESET_B 4.89921e-05
427 *244:46 *1327:RESET_B 0.000255258
428 *244:50 *1327:RESET_B 0
429 *244:50 *256:673 0
430 *245:14 *1344:RESET_B 0
431 *246:58 *1319:RESET_B 0.000404323
432 *246:95 *256:451 0.000106993
433 *247:32 *256:327 3.04568e-05
434 *247:32 *256:335 0
435 *247:48 *256:315 0.000185428
436 *247:48 *256:327 0
437 *247:64 *256:327 7.82517e-05
438 *249:12 *1302:RESET_B 0.000139707
*RES
1 *1416:X *256:8 41.3143 
2 *256:8 *1291:RESET_B 15 
3 *256:8 *256:23 40.2329 
4 *256:23 *1292:RESET_B 19.0496 
5 *256:23 *256:37 7.54 
6 *256:37 *1293:RESET_B 16.5018 
7 *256:37 *1294:RESET_B 20.7793 
8 *1294:RESET_B *256:54 5.31321 
9 *256:54 *256:58 20.075 
10 *256:58 *256:60 4.01857 
11 *256:60 *1296:RESET_B 16.5018 
12 *256:60 *256:76 22.6643 
13 *256:76 *1295:RESET_B 1.97821 
14 *256:76 *256:86 24.6529 
15 *256:86 *1301:RESET_B 16.0461 
16 *256:86 *256:100 16.5536 
17 *256:100 *1300:RESET_B 1.50179 
18 *256:100 *256:112 27.905 
19 *256:112 *1302:RESET_B 21.6389 
20 *1302:RESET_B *256:126 23.5861 
21 *256:126 *1316:RESET_B 16.8746 
22 *1316:RESET_B *256:150 27.5321 
23 *256:150 *256:152 2.78607 
24 *256:152 *256:158 20.5721 
25 *256:158 *256:168 27.0143 
26 *256:168 *256:170 3.8425 
27 *256:170 *1309:RESET_B 19.6814 
28 *256:170 *256:184 2.70321 
29 *256:184 *1303:RESET_B 19.0186 
30 *256:184 *1324:RESET_B 23.5032 
31 *256:168 *1310:RESET_B 15 
32 *1310:RESET_B *256:234 21.7189 
33 *256:234 *256:236 0.497143 
34 *256:236 *1325:RESET_B 0.548929 
35 *256:236 *256:246 20.7793 
36 *256:246 *1326:RESET_B 15.5489 
37 *256:246 *256:256 5.77929 
38 *256:256 *1321:RESET_B 15 
39 *256:256 *256:263 5.77929 
40 *256:263 *1322:RESET_B 19.3604 
41 *256:263 *256:273 5.77929 
42 *256:273 *1323:RESET_B 15 
43 *256:273 *256:280 7.54 
44 *256:280 *1320:RESET_B 15 
45 *256:280 *256:287 1.55357 
46 *256:287 *1319:RESET_B 29.1375 
47 *1319:RESET_B *256:301 21.1418 
48 *256:301 *256:311 49.9479 
49 *256:311 *256:315 17.5271 
50 *256:315 *256:327 40.0257 
51 *256:327 *256:331 3.50071 
52 *256:331 *256:335 20.4271 
53 *256:335 *256:339 21.1314 
54 *256:339 *1348:RESET_B 1.99893 
55 *256:339 *256:353 23.9071 
56 *256:353 *256:355 7.54 
57 *256:355 *256:357 9.65286 
58 *256:357 *1337:RESET_B 21.5457 
59 *256:357 *1338:RESET_B 15 
60 *256:355 *1339:RESET_B 15 
61 *256:353 *1333:RESET_B 15 
62 *256:335 *1340:RESET_B 15 
63 *256:331 *256:394 21.8979 
64 *256:394 *1334:RESET_B 16.0254 
65 *256:394 *256:404 7.54 
66 *256:404 *1335:RESET_B 16.0254 
67 *256:404 *1336:RESET_B 21.8046 
68 *256:327 *1341:RESET_B 0.548929 
69 *256:315 *1342:RESET_B 0.548929 
70 *256:301 *1318:RESET_B 15 
71 *256:287 *1289:RESET_B 21.4939 
72 *256:234 *256:451 14.4379 
73 *256:451 *256:459 21.8979 
74 *256:459 *256:465 10.352 
75 *256:465 *1343:RESET_B 23.3211 
76 *256:465 *256:480 23.0725 
77 *256:480 *1344:RESET_B 21.1314 
78 *256:480 *1345:RESET_B 15 
79 *256:459 *1346:RESET_B 16.9782 
80 *256:451 *1347:RESET_B 2.14393 
81 *256:158 *1311:RESET_B 1.5225 
82 *256:152 *1315:RESET_B 15 
83 *256:150 *256:525 7.01179 
84 *256:525 *1317:RESET_B 16.8746 
85 *256:525 *256:537 5.77929 
86 *256:537 *1288:RESET_B 21.9082 
87 *256:537 *256:551 1.55357 
88 *256:551 *1290:RESET_B 15.5489 
89 *256:551 *1312:RESET_B 28.3711 
90 *256:126 *1308:RESET_B 23.2132 
91 *256:112 *1306:RESET_B 23.2132 
92 *256:58 *256:607 22.4364 
93 *256:607 *256:621 46.1571 
94 *256:621 *256:627 28.0293 
95 *256:627 *1299:RESET_B 17.5789 
96 *256:627 *256:639 4.37071 
97 *256:639 *1329:RESET_B 24.1246 
98 *1329:RESET_B *1332:RESET_B 35.9968 
99 *256:639 *256:659 1.90571 
100 *256:659 *1305:RESET_B 15.5489 
101 *256:659 *256:673 5.13714 
102 *256:673 *1328:RESET_B 16.0461 
103 *256:673 *1327:RESET_B 32.5761 
104 *256:621 *1287:RESET_B 0.548929 
105 *1287:RESET_B *256:705 20.7793 
106 *256:705 *256:707 5.42714 
107 *256:707 *1349:RESET_B 21.1314 
108 *256:707 *256:722 38.5446 
109 *256:722 *1297:RESET_B 15.6732 
110 *256:722 *256:737 24.6632 
111 *256:737 *1298:RESET_B 1.04607 
112 *256:737 *256:755 27.2214 
113 *256:755 *1331:RESET_B 15 
114 *256:755 *1330:RESET_B 31.5611 
115 *256:705 *1350:RESET_B 15 
116 *256:607 *1304:RESET_B 3.57321 
117 *256:54 *1351:RESET_B 35.8104 
118 *1308:RESET_B *256:811 8.17179 
119 *256:811 *1307:RESET_B 0.548929 
120 *256:811 *256:821 24.3007 
121 *256:821 *1314:RESET_B 16.0254 
122 *256:821 *1313:RESET_B 18.0243 
*END

*D_NET *257 0.0014306
*CONN
*I *1426:A I *D sky130_fd_sc_hd__clkbuf_4
*I *1368:A I *D sky130_fd_sc_hd__dlygate4sd3_1
*I *1333:Q O *D sky130_fd_sc_hd__dfrtp_1
*CAP
1 *1426:A 0.000221924
2 *1368:A 0.000102713
3 *1333:Q 0.000248694
4 *257:10 0.000573332
5 *1426:A *355:10 0
6 *1426:A *378:10 8.51329e-05
7 *257:10 *284:8 2.79004e-05
8 *257:10 *355:10 0
9 *20:8 *1426:A 0.00011726
10 *20:8 *257:10 5.36457e-05
*RES
1 *1333:Q *257:10 42.3086 
2 *257:10 *1368:A 39.5743 
3 *257:10 *1426:A 43.7793 
*END

*D_NET *258 0.000918696
*CONN
*I *1366:A I *D sky130_fd_sc_hd__dlygate4sd3_1
*I *1427:A I *D sky130_fd_sc_hd__buf_2
*I *1334:Q O *D sky130_fd_sc_hd__dfrtp_1
*CAP
1 *1366:A 0.000251234
2 *1427:A 0.000196187
3 *1334:Q 0
4 *258:6 0.000447421
5 *1366:A *282:8 0
6 o_bucket[1] *1427:A 2.38535e-05
7 *99:141 *1366:A 0
8 *99:141 *1427:A 0
*RES
1 *1334:Q *258:6 38 
2 *258:6 *1427:A 42.0186 
3 *258:6 *1366:A 42.7229 
*END

*D_NET *259 0.00187573
*CONN
*I *1141:B1 I *D sky130_fd_sc_hd__o211a_1
*I *1144:A1 I *D sky130_fd_sc_hd__mux2_1
*I *1417:X O *D sky130_fd_sc_hd__clkbuf_1
*CAP
1 *1141:B1 0
2 *1144:A1 0
3 *1417:X 0.000289264
4 *259:16 0.000247901
5 *259:10 0.000537165
6 *259:10 *1141:A2 1.12796e-05
7 *259:10 *270:14 9.2057e-05
8 *259:16 *327:29 9.28289e-05
9 *1141:A1 *259:10 7.93919e-06
10 *93:53 *259:16 0.000401731
11 *150:20 *259:10 0.00015512
12 *156:10 *259:16 4.04496e-05
*RES
1 *1417:X *259:10 29.38 
2 *259:10 *259:16 35.4271 
3 *259:16 *1144:A1 23 
4 *259:10 *1141:B1 23 
*END

*D_NET *260 0.00105871
*CONN
*I *1428:A I *D sky130_fd_sc_hd__clkbuf_4
*I *1370:A I *D sky130_fd_sc_hd__dlygate4sd3_1
*I *1335:Q O *D sky130_fd_sc_hd__dfrtp_1
*CAP
1 *1428:A 0.000320341
2 *1370:A 0
3 *1335:Q 0.000116773
4 *260:8 0.000437114
5 *1428:A *264:10 0.000166387
6 o_bucket[2] *1428:A 1.80959e-05
*RES
1 *1335:Q *260:8 40.2579 
2 *260:8 *1370:A 38 
3 *260:8 *1428:A 44.4007 
*END

*D_NET *261 0.00279712
*CONN
*I *1393:A I *D sky130_fd_sc_hd__dlygate4sd3_1
*I *1429:A I *D sky130_fd_sc_hd__clkbuf_4
*I *1337:Q O *D sky130_fd_sc_hd__dfrtp_1
*CAP
1 *1393:A 0.000284383
2 *1429:A 0
3 *1337:Q 0
4 *261:10 0.00108266
5 *261:6 0.00136704
6 *1393:A *262:10 0
7 o_index[1] *261:10 6.30342e-05
8 *1337:RESET_B *1393:A 0
*RES
1 *1337:Q *261:6 38 
2 *261:6 *261:10 36.9779 
3 *261:10 *1429:A 23 
4 *261:6 *1393:A 43.2407 
*END

*D_NET *262 0.00171747
*CONN
*I *1381:A I *D sky130_fd_sc_hd__dlygate4sd3_1
*I *1430:A I *D sky130_fd_sc_hd__buf_2
*I *1338:Q O *D sky130_fd_sc_hd__dfrtp_1
*CAP
1 *1381:A 0.000188961
2 *1430:A 0
3 *1338:Q 0
4 *262:10 0.000669775
5 *262:6 0.000858736
6 *1381:A *297:8 0
7 *262:10 *297:8 0
8 *1393:A *262:10 0
*RES
1 *1338:Q *262:6 38 
2 *262:6 *262:10 28.1743 
3 *262:10 *1430:A 23 
4 *262:6 *1381:A 41.6664 
*END

*D_NET *263 0.00163673
*CONN
*I *1431:A I *D sky130_fd_sc_hd__clkbuf_4
*I *1367:A I *D sky130_fd_sc_hd__dlygate4sd3_1
*I *1339:Q O *D sky130_fd_sc_hd__dfrtp_1
*CAP
1 *1431:A 0.000499941
2 *1367:A 9.51049e-05
3 *1339:Q 0.000223317
4 *263:8 0.000818363
*RES
1 *1339:Q *263:8 26.9564 
2 *263:8 *1367:A 25.0507 
3 *263:8 *1431:A 31.9486 
*END

*D_NET *264 0.00130006
*CONN
*I *1432:A I *D sky130_fd_sc_hd__clkbuf_4
*I *1336:Q O *D sky130_fd_sc_hd__dfrtp_1
*CAP
1 *1432:A 0
2 *1336:Q 0.000522895
3 *264:10 0.000522895
4 o_bucket[2] *264:10 8.78864e-05
5 *1428:A *264:10 0.000166387
*RES
1 *1336:Q *264:10 48.6264 
2 *264:10 *1432:A 38 
*END

*D_NET *265 0.00199443
*CONN
*I *1118:A2 I *D sky130_fd_sc_hd__a31o_1
*I *1425:X O *D sky130_fd_sc_hd__clkbuf_1
*CAP
1 *1118:A2 6.6797e-05
2 *1425:X 0.000414605
3 *265:10 0.000481402
4 *1251:A1 *265:10 0
5 *1276:A3 *265:10 1.54105e-05
6 *97:36 *265:10 0.000142418
7 *116:16 *1118:A2 5.00237e-05
8 *116:29 *1118:A2 5.82853e-05
9 *126:64 *265:10 0.000139352
10 *132:10 *265:10 0.000547494
11 *137:37 *265:10 5.80966e-05
12 *138:24 *265:10 2.05503e-05
*RES
1 *1425:X *265:10 47.1143 
2 *265:10 *1118:A2 39.5743 
*END

*D_NET *266 0.00212338
*CONN
*I *1247:A I *D sky130_fd_sc_hd__nand2_1
*I *1425:A I *D sky130_fd_sc_hd__clkbuf_1
*I *1433:X O *D sky130_fd_sc_hd__clkbuf_1
*CAP
1 *1247:A 0.000294363
2 *1425:A 0.000382955
3 *1433:X 0
4 *266:6 0.000677318
5 *1247:A *1123:B1 0
6 *1247:B *1247:A 3.01328e-05
7 *88:14 *1425:A 0.000110733
8 *98:14 *1425:A 0
9 *98:18 *1247:A 0
10 *124:14 *1247:A 4.80733e-05
11 *126:48 *1425:A 0.000274234
12 *126:64 *1425:A 6.22553e-05
13 *131:16 *1425:A 0.000161121
14 *138:16 *1247:A 1.24376e-05
15 *213:14 *1247:A 5.07225e-05
16 *256:459 *1247:A 1.90333e-05
17 *256:459 *1425:A 0
*RES
1 *1433:X *266:6 38 
2 *266:6 *1425:A 45.7471 
3 *266:6 *1247:A 43.0077 
*END

*D_NET *267 0.000707167
*CONN
*I *1176:B1 I *D sky130_fd_sc_hd__a21o_1
*I *1361:X O *D sky130_fd_sc_hd__dlygate4sd3_1
*CAP
1 *1176:B1 4.09557e-05
2 *1361:X 0.000126421
3 *267:10 0.000167377
4 *1176:A2 *1176:B1 2.44419e-05
5 *45:8 *267:10 5.511e-05
6 *59:10 *267:10 5.56356e-05
7 *93:139 *267:10 0.000113244
8 *93:147 *1176:B1 1.14154e-05
9 *193:10 *267:10 1.59071e-05
10 *242:60 *267:10 9.66585e-05
*RES
1 *1361:X *267:10 41.1279 
2 *267:10 *1176:B1 39.2014 
*END

*D_NET *268 0.00109944
*CONN
*I *1148:B1 I *D sky130_fd_sc_hd__a21o_1
*I *1372:X O *D sky130_fd_sc_hd__dlygate4sd3_1
*CAP
1 *1148:B1 0
2 *1372:X 0.000381287
3 *268:8 0.000381287
4 *268:8 *281:14 3.53115e-05
5 *1148:A1 *268:8 0.000203072
6 *162:18 *268:8 9.84851e-05
*RES
1 *1372:X *268:8 30.1879 
2 *268:8 *1148:B1 23 
*END

*D_NET *269 0.000456038
*CONN
*I *1193:B1 I *D sky130_fd_sc_hd__a21o_1
*I *1383:X O *D sky130_fd_sc_hd__dlygate4sd3_1
*CAP
1 *1193:B1 0.00021186
2 *1383:X 0.00021186
3 *51:10 *1193:B1 3.23186e-05
*RES
1 *1383:X *1193:B1 49.9564 
*END

*D_NET *270 0.00318213
*CONN
*I *1142:B2 I *D sky130_fd_sc_hd__a22o_1
*I *1141:A2 I *D sky130_fd_sc_hd__o211a_1
*I *1146:A1 I *D sky130_fd_sc_hd__mux2_1
*I *1418:X O *D sky130_fd_sc_hd__buf_1
*CAP
1 *1142:B2 6.49877e-05
2 *1141:A2 1.47614e-05
3 *1146:A1 0.00034079
4 *1418:X 0.000254919
5 *270:14 0.000648519
6 *270:6 0.000612875
7 *1142:B2 *1143:A2 2.72068e-05
8 *1146:A1 *1139:A 0.000259331
9 *1146:A1 *1146:A0 5.79559e-05
10 *1141:A1 *1141:A2 1.12796e-05
11 *93:53 *270:14 1.92014e-05
12 *150:6 *1146:A1 0.000167286
13 *150:20 *1146:A1 1.88391e-05
14 *150:20 *270:14 0.000103229
15 *151:10 *270:14 1.74126e-05
16 *154:27 *1146:A1 9.86777e-06
17 *156:10 *1146:A1 0.000450337
18 *259:10 *1141:A2 1.12796e-05
19 *259:10 *270:14 9.2057e-05
*RES
1 *1418:X *270:6 26.48 
2 *270:6 *270:14 35.1371 
3 *270:14 *1146:A1 33.0257 
4 *270:14 *1141:A2 23.4971 
5 *270:6 *1142:B2 24.8229 
*END

*D_NET *271 0.000481212
*CONN
*I *1204:B1 I *D sky130_fd_sc_hd__a21o_1
*I *1394:X O *D sky130_fd_sc_hd__dlygate4sd3_1
*CAP
1 *1204:B1 7.52137e-05
2 *1394:X 7.52137e-05
3 *93:189 *1204:B1 0.00010018
4 *255:12 *1204:B1 0.00010018
5 *255:23 *1204:B1 0.000130423
*RES
1 *1394:X *1204:B1 49.0243 
*END

*D_NET *272 0.000303217
*CONN
*I *1159:B1 I *D sky130_fd_sc_hd__a21o_1
*I *1403:X O *D sky130_fd_sc_hd__dlygate4sd3_1
*CAP
1 *1159:B1 0.000127948
2 *1403:X 0.000127948
3 *1159:B1 *314:37 3.25817e-05
4 *93:218 *1159:B1 1.47394e-05
*RES
1 *1403:X *1159:B1 48.5479 
*END

*D_NET *273 0.000794108
*CONN
*I *1269:B1 I *D sky130_fd_sc_hd__o21ai_1
*I *1404:X O *D sky130_fd_sc_hd__dlygate4sd3_1
*CAP
1 *1269:B1 0
2 *1404:X 0.000217543
3 *273:10 0.000217543
4 *1270:A *273:10 0
5 *1344:RESET_B *273:10 0
6 *85:8 *273:10 5.21127e-05
7 *134:12 *273:10 8.06039e-05
8 *134:24 *273:10 0
9 *245:8 *273:10 0.000226306
*RES
1 *1404:X *273:10 43.1371 
2 *273:10 *1269:B1 38 
*END

*D_NET *274 8.77235e-05
*CONN
*I *1271:B1 I *D sky130_fd_sc_hd__o21ai_1
*I *1405:X O *D sky130_fd_sc_hd__dlygate4sd3_1
*CAP
1 *1271:B1 2.46306e-05
2 *1405:X 2.46306e-05
3 *1271:B1 *375:44 6.17437e-06
4 *230:8 *1271:B1 3.22879e-05
*RES
1 *1405:X *1271:B1 46.6214 
*END

*D_NET *275 0.00328468
*CONN
*I *1239:A1 I *D sky130_fd_sc_hd__mux2_1
*I *1164:A0 I *D sky130_fd_sc_hd__mux2_1
*I *1406:X O *D sky130_fd_sc_hd__dlygate4sd3_1
*CAP
1 *1239:A1 0
2 *1164:A0 0
3 *1406:X 0.00011221
4 *275:24 0.000772742
5 *275:14 0.00100041
6 *275:8 0.000339876
7 *275:14 *323:10 0.00062907
8 *275:24 *1164:A1 5.79559e-05
9 *275:24 *325:16 4.65096e-05
10 *1164:S *275:24 0.000102389
11 *1239:S *275:14 0.000189848
12 *244:10 *275:8 3.36703e-05
*RES
1 *1406:X *275:8 39.9057 
2 *275:8 *275:14 22.3121 
3 *275:14 *275:24 45.1629 
4 *275:24 *1164:A0 23 
5 *275:14 *1239:A1 23 
*END

*D_NET *276 0.000201795
*CONN
*I *1240:A I *D sky130_fd_sc_hd__clkbuf_1
*I *1407:X O *D sky130_fd_sc_hd__dlygate4sd3_1
*CAP
1 *1240:A 7.19193e-05
2 *1407:X 7.19193e-05
3 *75:8 *1240:A 5.79559e-05
*RES
1 *1407:X *1240:A 47.5743 
*END

*D_NET *277 0.0026267
*CONN
*I *1219:A1 I *D sky130_fd_sc_hd__mux2_1
*I *1207:A0 I *D sky130_fd_sc_hd__mux2_1
*I *1362:X O *D sky130_fd_sc_hd__dlygate4sd3_1
*CAP
1 *1219:A1 0
2 *1207:A0 0
3 *1362:X 0.000169742
4 *277:20 0.000678129
5 *277:10 0.000847871
6 *277:20 *1207:A1 0.00041657
7 *1207:S *277:20 5.5792e-05
8 *1219:S *277:20 3.64813e-05
9 *1315:CLK *277:20 6.58338e-05
10 *243:62 *277:10 0
11 *256:152 *277:20 0.000179214
12 *256:525 *277:10 0.000151862
13 *256:525 *277:20 2.52012e-05
*RES
1 *1362:X *277:10 40.8793 
2 *277:10 *277:20 30.7843 
3 *277:20 *1207:A0 23 
4 *277:10 *1219:A1 38 
*END

*D_NET *278 0.00246406
*CONN
*I *1237:A1 I *D sky130_fd_sc_hd__mux2_1
*I *1162:A0 I *D sky130_fd_sc_hd__mux2_1
*I *1363:X O *D sky130_fd_sc_hd__dlygate4sd3_1
*CAP
1 *1237:A1 0.000428946
2 *1162:A0 0.000434122
3 *1363:X 0
4 *278:4 0.000863067
5 *1162:A0 *1238:A 3.21299e-05
6 *1163:A *1162:A0 0.000146822
7 *1237:S *1237:A1 5.55743e-06
8 *41:10 *1162:A0 9.03964e-06
9 *74:10 *1162:A0 5.82853e-05
10 *74:10 *1237:A1 0.000454145
11 *208:12 *1237:A1 3.19474e-05
*RES
1 *1363:X *278:4 23 
2 *278:4 *1162:A0 31.0371 
3 *278:4 *1237:A1 30.1879 
*END

*D_NET *279 0.000870499
*CONN
*I *1238:A I *D sky130_fd_sc_hd__clkbuf_1
*I *1364:X O *D sky130_fd_sc_hd__dlygate4sd3_1
*CAP
1 *1238:A 0.000215409
2 *1364:X 8.21266e-05
3 *279:8 0.000297536
4 *1162:A0 *1238:A 3.21299e-05
5 *74:10 *1238:A 0.000204625
6 *208:12 *1238:A 3.86731e-05
*RES
1 *1364:X *279:8 39.2014 
2 *279:8 *1238:A 43.7586 
*END

*D_NET *280 0.00258666
*CONN
*I *1229:A1 I *D sky130_fd_sc_hd__mux2_1
*I *1177:A0 I *D sky130_fd_sc_hd__mux2_1
*I *1365:X O *D sky130_fd_sc_hd__dlygate4sd3_1
*CAP
1 *1229:A1 0
2 *1177:A0 0.000582995
3 *1365:X 0
4 *280:21 0.00029502
5 *280:4 0.000878014
6 *1177:A0 *324:74 2.95423e-05
7 *1327:RESET_B *1177:A0 0.000199626
8 *126:25 *280:21 0.000329837
9 *162:44 *1177:A0 1.76213e-05
10 *162:55 *1177:A0 7.48414e-05
11 *204:8 *280:21 1.16455e-05
12 *244:50 *280:21 0.000167522
*RES
1 *1365:X *280:4 23 
2 *280:4 *1177:A0 33.6264 
3 *280:4 *280:21 36.9393 
4 *280:21 *1229:A1 23 
*END

*D_NET *281 0.00280115
*CONN
*I *1142:A2 I *D sky130_fd_sc_hd__a22o_1
*I *1143:A2 I *D sky130_fd_sc_hd__o221a_2
*I *1148:A2 I *D sky130_fd_sc_hd__a21o_1
*I *1419:X O *D sky130_fd_sc_hd__buf_1
*CAP
1 *1142:A2 0
2 *1143:A2 0.000321297
3 *1148:A2 0
4 *1419:X 5.74026e-05
5 *281:27 0.000610151
6 *281:14 0.000520687
7 *281:8 0.000289235
8 *1142:A1 *1143:A2 6.89583e-06
9 *1142:B2 *1143:A2 2.72068e-05
10 *1143:B2 *1143:A2 0.000111144
11 *1143:C1 *1143:A2 5.44438e-05
12 *1148:A1 *281:14 4.01721e-05
13 *1148:A1 *281:27 9.84794e-05
14 *7:13 *281:8 0
15 *36:8 *281:27 0
16 *93:66 *281:27 0.000427412
17 *150:20 *281:27 5.75756e-06
18 *163:10 *281:14 5.67058e-05
19 *163:10 *281:27 2.4754e-05
20 *240:27 *281:8 0.000114092
21 *240:27 *281:27 0
22 *268:8 *281:14 3.53115e-05
*RES
1 *1419:X *281:8 39.5536 
2 *281:8 *281:14 19.4536 
3 *281:14 *1148:A2 23 
4 *281:14 *281:27 36.8771 
5 *281:27 *1143:A2 28.5307 
6 *281:27 *1142:A2 23 
*END

*D_NET *282 0.00045395
*CONN
*I *1243:A0 I *D sky130_fd_sc_hd__mux2_1
*I *1366:X O *D sky130_fd_sc_hd__dlygate4sd3_1
*CAP
1 *1243:A0 0.000121564
2 *1366:X 7.99682e-05
3 *282:8 0.000201532
4 *1243:S *1243:A0 5.08856e-05
5 *1366:A *282:8 0
6 *256:404 *282:8 0
*RES
1 *1366:X *282:8 39.2014 
2 *282:8 *1243:A0 40.2993 
*END

*D_NET *283 0.000553681
*CONN
*I *1254:A0 I *D sky130_fd_sc_hd__mux2_1
*I *1367:X O *D sky130_fd_sc_hd__dlygate4sd3_1
*CAP
1 *1254:A0 0.000235192
2 *1367:X 0.000235192
3 *1254:S *1254:A0 2.50118e-05
4 *130:40 *1254:A0 5.82853e-05
*RES
1 *1367:X *1254:A0 49.9564 
*END

*D_NET *284 0.000821565
*CONN
*I *1241:A0 I *D sky130_fd_sc_hd__mux2_1
*I *1368:X O *D sky130_fd_sc_hd__dlygate4sd3_1
*CAP
1 *1241:A0 8.55791e-05
2 *1368:X 0.000143555
3 *284:8 0.000229134
4 *284:8 *355:10 0.000302135
5 *1241:S *1241:A0 3.32626e-05
6 *20:8 *284:8 0
7 *257:10 *284:8 2.79004e-05
*RES
1 *1368:X *284:8 42.0186 
2 *284:8 *1241:A0 39.0979 
*END

*D_NET *285 0.0029884
*CONN
*I *1285:A I *D sky130_fd_sc_hd__nor2_1
*I *1369:X O *D sky130_fd_sc_hd__dlygate4sd3_1
*CAP
1 *1285:A 0
2 *1369:X 0.00087999
3 *285:12 0.000123056
4 *285:6 0.00100305
5 *285:6 *1077:B 3.76651e-06
6 *285:6 *1077:C 8.10394e-05
7 *285:6 *324:31 0.000753001
8 *93:40 *285:6 0.000144501
*RES
1 *1369:X *285:6 36.0086 
2 *285:6 *285:12 31.9057 
3 *285:12 *1285:A 23 
*END

*D_NET *286 0.00122486
*CONN
*I *1245:A0 I *D sky130_fd_sc_hd__mux2_1
*I *1370:X O *D sky130_fd_sc_hd__dlygate4sd3_1
*CAP
1 *1245:A0 0
2 *1370:X 0.000385824
3 *286:10 0.000385824
4 *1336:D *286:10 0.000150878
5 *1336:RESET_B *286:10 0.000186015
6 *256:404 *286:10 0.000116314
*RES
1 *1370:X *286:10 45.4986 
2 *286:10 *1245:A0 38 
*END

*D_NET *287 0.00389403
*CONN
*I *1235:A1 I *D sky130_fd_sc_hd__mux2_1
*I *1160:A0 I *D sky130_fd_sc_hd__mux2_1
*I *1371:X O *D sky130_fd_sc_hd__dlygate4sd3_1
*CAP
1 *1235:A1 0.000239748
2 *1160:A0 0.00127106
3 *1371:X 8.32732e-05
4 *287:10 0.00151081
5 *287:8 8.32732e-05
6 *1160:A0 *1160:A1 5.79559e-05
7 *1160:S *1160:A0 2.46906e-05
8 *1331:CLK *1160:A0 9.65159e-05
9 *126:136 *1160:A0 0.000192479
10 *126:136 *1235:A1 0.000334217
*RES
1 *1371:X *287:8 39.2014 
2 *287:8 *287:10 15 
3 *287:10 *1160:A0 44.75 
4 *287:10 *1235:A1 28.4271 
*END

*D_NET *288 6.65447e-05
*CONN
*I *1236:A I *D sky130_fd_sc_hd__clkbuf_1
*I *1373:X O *D sky130_fd_sc_hd__dlygate4sd3_1
*CAP
1 *1236:A 3.32723e-05
2 *1373:X 3.32723e-05
*RES
1 *1373:X *1236:A 46.6214 
*END

*D_NET *289 0.00161997
*CONN
*I *1227:A1 I *D sky130_fd_sc_hd__mux2_1
*I *1198:A0 I *D sky130_fd_sc_hd__mux2_1
*I *1374:X O *D sky130_fd_sc_hd__dlygate4sd3_1
*CAP
1 *1227:A1 0
2 *1198:A0 0.000249699
3 *1374:X 0
4 *289:21 0.000430811
5 *289:4 0.000680511
6 *289:21 *325:88 0.000111106
7 *1198:S *1198:A0 3.16665e-05
8 *1311:RESET_B *289:21 1.24376e-05
9 *126:184 *289:21 5.43544e-05
10 *126:199 *289:21 4.93812e-05
*RES
1 *1374:X *289:4 23 
2 *289:4 *1198:A0 26.0036 
3 *289:4 *289:21 37.0843 
4 *289:21 *1227:A1 23 
*END

*D_NET *290 0.00158004
*CONN
*I *1231:A1 I *D sky130_fd_sc_hd__mux2_1
*I *1179:A0 I *D sky130_fd_sc_hd__mux2_1
*I *1375:X O *D sky130_fd_sc_hd__dlygate4sd3_1
*CAP
1 *1231:A1 0
2 *1179:A0 0.0004396
3 *1375:X 0
4 *290:19 0.000150044
5 *290:4 0.000589644
6 *1179:A0 *1179:A1 0.000139352
7 *1179:A0 *1375:A 5.50106e-05
8 *290:19 *362:14 0
9 *1179:S *1179:A0 9.64182e-05
10 *1179:S *290:19 1.21972e-05
11 *1328:CLK *290:19 1.14876e-05
12 *162:55 *290:19 8.62876e-05
*RES
1 *1375:X *290:4 23 
2 *290:4 *1179:A0 28.8621 
3 *290:4 *290:19 32.2993 
4 *290:19 *1231:A1 23 
*END

*D_NET *291 0.00433377
*CONN
*I *1283:B1 I *D sky130_fd_sc_hd__a21oi_1
*I *1376:X O *D sky130_fd_sc_hd__dlygate4sd3_1
*CAP
1 *1283:B1 0
2 *1376:X 0
3 *291:12 0.00163583
4 *291:6 0.00163583
5 *291:12 *324:48 8.06804e-06
6 *291:12 *326:20 0
7 *291:12 *326:35 0.000364304
8 *1284:B *291:12 2.93335e-05
9 *47:10 *291:12 0
10 *91:10 *291:12 9.66668e-05
11 *241:10 *291:12 0
12 *256:621 *291:12 0
13 *256:705 *291:12 0.000422847
14 *256:707 *291:12 0.000140884
*RES
1 *1376:X *291:6 38 
2 *291:6 *291:12 47.77 
3 *291:12 *1283:B1 23 
*END

*D_NET *292 0.00248359
*CONN
*I *1152:B1 I *D sky130_fd_sc_hd__o211a_1
*I *1155:A1 I *D sky130_fd_sc_hd__mux2_1
*I *1420:X O *D sky130_fd_sc_hd__clkbuf_1
*CAP
1 *1152:B1 8.08973e-05
2 *1155:A1 0
3 *1420:X 0.000410813
4 *292:16 0.000183044
5 *292:8 0.000674755
6 *1152:B1 *1152:A2 1.12796e-05
7 *1152:B1 *303:27 7.61229e-06
8 *292:16 *1151:A 0.000435013
9 *292:16 *1155:A0 8.62783e-05
10 *1152:C1 *1152:B1 1.31697e-05
11 *1152:C1 *292:8 5.29205e-05
12 *1153:B1 *1152:B1 1.34966e-05
13 *240:12 *292:16 0.000301409
14 *240:149 *292:16 0.0002129
*RES
1 *1420:X *292:8 30.3121 
2 *292:8 *292:16 37.3329 
3 *292:16 *1155:A1 23 
4 *292:8 *1152:B1 24.595 
*END

*D_NET *293 0.00271227
*CONN
*I *1223:A1 I *D sky130_fd_sc_hd__mux2_1
*I *1194:A0 I *D sky130_fd_sc_hd__mux2_1
*I *1377:X O *D sky130_fd_sc_hd__dlygate4sd3_1
*CAP
1 *1223:A1 0.000302637
2 *1194:A0 0
3 *1377:X 0
4 *293:12 0.000606434
5 *293:4 0.000909071
6 *1223:A1 *1223:A0 5.79559e-05
7 *293:12 *1194:A1 0.000450323
8 *1223:S *1223:A1 7.12732e-05
9 *1224:A *1223:A1 0.000143655
10 *1324:CLK *293:12 2.90421e-05
11 *1324:RESET_B *293:12 5.58003e-05
12 *67:8 *293:12 0
13 *256:184 *293:12 8.60837e-05
*RES
1 *1377:X *293:4 23 
2 *293:4 *293:12 38.9693 
3 *293:12 *1194:A0 23 
4 *293:4 *1223:A1 28.8829 
*END

*D_NET *294 0.000907812
*CONN
*I *1227:A0 I *D sky130_fd_sc_hd__mux2_1
*I *1378:X O *D sky130_fd_sc_hd__dlygate4sd3_1
*CAP
1 *1227:A0 0
2 *1378:X 0.000316121
3 *294:6 0.000316121
4 *126:199 *294:6 0.000275569
*RES
1 *1378:X *294:6 29.3386 
2 *294:6 *1227:A0 23 
*END

*D_NET *295 0.00439006
*CONN
*I *1233:A1 I *D sky130_fd_sc_hd__mux2_1
*I *1181:A0 I *D sky130_fd_sc_hd__mux2_1
*I *1379:X O *D sky130_fd_sc_hd__dlygate4sd3_1
*CAP
1 *1233:A1 0
2 *1181:A0 0
3 *1379:X 0
4 *295:29 0.00059736
5 *295:16 0.000861706
6 *295:4 0.00145907
7 *295:16 *1181:A1 5.50049e-05
8 *295:16 *1234:A 0.000272099
9 *295:16 *1382:A 0.000182617
10 *295:29 *1094:B_N 0.000268074
11 *1096:B *295:29 0
12 *1329:RESET_B *295:16 0.000409182
13 *1357:A *295:29 5.67058e-05
14 *72:10 *295:16 0.000141954
15 *244:10 *295:29 0
16 *244:50 *295:16 8.62876e-05
*RES
1 *1379:X *295:4 23 
2 *295:4 *295:16 45.3286 
3 *295:16 *1181:A0 23 
4 *295:4 *295:29 40.2743 
5 *295:29 *1233:A1 23 
*END

*D_NET *296 0.00146793
*CONN
*I *1234:A I *D sky130_fd_sc_hd__clkbuf_1
*I *1380:X O *D sky130_fd_sc_hd__dlygate4sd3_1
*CAP
1 *1234:A 7.90207e-05
2 *1380:X 0.000311868
3 *296:10 0.000390888
4 *1234:A *332:6 0.000141675
5 *296:10 *362:27 0.000272383
6 *244:50 *296:10 0
7 *295:16 *1234:A 0.000272099
*RES
1 *1380:X *296:10 43.2614 
2 *296:10 *1234:A 41.0036 
*END

*D_NET *297 0.000950374
*CONN
*I *1252:A0 I *D sky130_fd_sc_hd__mux2_1
*I *1381:X O *D sky130_fd_sc_hd__dlygate4sd3_1
*CAP
1 *1252:A0 0.000174974
2 *1381:X 0.000218747
3 *297:8 0.000393722
4 *1252:A0 *309:6 0.000123934
5 o_index[2] *297:8 3.89972e-05
6 *1337:RESET_B *297:8 0
7 *1381:A *297:8 0
8 *256:357 *297:8 0
9 *262:10 *297:8 0
*RES
1 *1381:X *297:8 42.0186 
2 *297:8 *1252:A0 40.5271 
*END

*D_NET *298 0.00486304
*CONN
*I *1282:B I *D sky130_fd_sc_hd__xor2_1
*I *1382:X O *D sky130_fd_sc_hd__dlygate4sd3_1
*CAP
1 *1282:B 0
2 *1382:X 0.000462365
3 *298:18 0.00111534
4 *298:8 0.0015777
5 *298:8 *1382:A 0.000128164
6 *298:8 *326:72 5.60292e-05
7 *298:18 *324:10 0
8 *298:18 *325:46 0.000424736
9 *90:10 *298:18 0.000183449
10 *93:23 *298:18 2.93335e-05
11 *241:10 *298:18 0.000377109
12 *241:18 *298:18 0.000310604
13 *256:722 *298:18 0.000198206
*RES
1 *1382:X *298:8 44.3386 
2 *298:8 *298:18 39.795 
3 *298:18 *1282:B 23 
*END

*D_NET *299 0.00430143
*CONN
*I *1215:A1 I *D sky130_fd_sc_hd__mux2_1
*I *1136:A0 I *D sky130_fd_sc_hd__mux2_1
*I *1384:X O *D sky130_fd_sc_hd__dlygate4sd3_1
*CAP
1 *1215:A1 0
2 *1136:A0 0
3 *1384:X 0
4 *299:37 5.94287e-05
5 *299:31 0.000445902
6 *299:18 0.00103373
7 *299:4 0.00142021
8 *299:18 *1134:A1 6.55954e-05
9 *299:18 *1136:A1 3.7122e-06
10 *299:18 *350:8 3.05357e-05
11 *299:31 *305:26 0.000339668
12 *1290:RESET_B *299:18 4.89921e-05
13 *33:8 *299:18 1.0092e-05
14 *126:216 *299:31 0.000138859
15 *148:8 *299:18 8.36198e-05
16 *243:112 *299:18 0.000375595
17 *246:45 *299:18 9.79925e-05
18 *246:45 *299:31 0.000105378
19 *256:280 *299:37 4.21252e-05
*RES
1 *1384:X *299:4 23 
2 *299:4 *299:18 46.4264 
3 *299:18 *1136:A0 23 
4 *299:4 *299:31 38.3479 
5 *299:31 *299:37 31.2014 
6 *299:37 *1215:A1 23 
*END

*D_NET *300 0.000196507
*CONN
*I *1216:A I *D sky130_fd_sc_hd__clkbuf_1
*I *1385:X O *D sky130_fd_sc_hd__dlygate4sd3_1
*CAP
1 *1216:A 5.69298e-05
2 *1385:X 5.69298e-05
3 *1216:A *349:8 8.26478e-05
*RES
1 *1385:X *1216:A 47.5743 
*END

*D_NET *301 0.00400421
*CONN
*I *1221:A1 I *D sky130_fd_sc_hd__mux2_1
*I *1209:A0 I *D sky130_fd_sc_hd__mux2_1
*I *1386:X O *D sky130_fd_sc_hd__dlygate4sd3_1
*CAP
1 *1221:A1 0
2 *1209:A0 0
3 *1386:X 0
4 *301:25 0.000413325
5 *301:12 0.00127133
6 *301:4 0.00168465
7 *301:12 *1136:A1 0
8 *301:12 *1386:A 0.000197374
9 *301:12 *326:48 0
10 *1317:D *301:12 5.41385e-05
11 *1317:RESET_B *301:12 1.04196e-05
12 *1323:CLK *301:12 6.17437e-06
13 *1323:CLK *301:25 2.93845e-05
14 *1323:D *301:25 2.36436e-05
15 *126:203 *301:25 1.14452e-05
16 *126:216 *301:25 0.000130424
17 *243:86 *301:12 0.000171906
18 *246:26 *301:25 0
*RES
1 *1386:X *301:4 23 
2 *301:4 *301:12 48.125 
3 *301:12 *1209:A0 23 
4 *301:4 *301:25 36.3386 
5 *301:25 *1221:A1 23 
*END

*D_NET *302 0.000321488
*CONN
*I *1222:A I *D sky130_fd_sc_hd__clkbuf_1
*I *1387:X O *D sky130_fd_sc_hd__dlygate4sd3_1
*CAP
1 *1222:A 1.70892e-05
2 *1387:X 1.70892e-05
3 *1222:A *1132:A0 0.000143655
4 *1222:A *1392:A 0.000143655
*RES
1 *1387:X *1222:A 47.5743 
*END

*D_NET *303 0.00241978
*CONN
*I *1153:B2 I *D sky130_fd_sc_hd__a22o_1
*I *1152:A2 I *D sky130_fd_sc_hd__o211a_1
*I *1157:A1 I *D sky130_fd_sc_hd__mux2_1
*I *1421:X O *D sky130_fd_sc_hd__buf_1
*CAP
1 *1153:B2 0.000151902
2 *1152:A2 8.93286e-06
3 *1157:A1 4.59486e-05
4 *1421:X 0.000378932
5 *303:27 0.000450203
6 *303:6 0.000714249
7 *1157:A1 *1157:A0 3.26241e-05
8 *303:27 *1157:A0 1.86239e-05
9 *1152:B1 *1152:A2 1.12796e-05
10 *1152:B1 *303:27 7.61229e-06
11 *1152:C1 *1152:A2 4.69082e-06
12 *1152:C1 *303:27 5.55743e-06
13 *1153:A1 *1153:B2 3.86731e-05
14 *1153:B1 *1152:A2 1.12796e-05
15 *1153:B1 *1153:B2 0.000148252
16 *1157:S *303:27 4.98295e-05
17 *1158:A *303:6 5.33272e-05
18 *38:10 *303:6 5.1614e-06
19 *93:93 *303:27 8.57485e-05
20 *157:16 *1153:B2 5.82853e-05
21 *160:10 *1153:B2 5.29205e-05
22 *240:149 *303:27 8.57485e-05
*RES
1 *1421:X *303:6 28.3857 
2 *303:6 *1157:A1 24.4707 
3 *303:6 *303:27 35.1993 
4 *303:27 *1152:A2 23.4971 
5 *303:27 *1153:B2 26.9771 
*END

*D_NET *304 0.00403315
*CONN
*I *1217:A1 I *D sky130_fd_sc_hd__mux2_1
*I *1205:A0 I *D sky130_fd_sc_hd__mux2_1
*I *1388:X O *D sky130_fd_sc_hd__dlygate4sd3_1
*CAP
1 *1217:A1 7.15981e-05
2 *1205:A0 0.000195833
3 *1388:X 0
4 *304:18 0.000773883
5 *304:4 0.000649648
6 *1205:A0 *1205:A1 2.19403e-05
7 *1205:A0 *324:116 5.00237e-05
8 *1217:A1 *368:23 0.000363448
9 *304:18 *1219:A0 8.85165e-05
10 *304:18 *325:101 3.67805e-05
11 *304:18 *342:10 5.68958e-05
12 *304:18 *368:23 1.35999e-05
13 *1217:S *1217:A1 0.000141352
14 *1219:S *1205:A0 7.51697e-05
15 *1219:S *304:18 0
16 *1322:CLK *304:18 1.12349e-05
17 *1322:D *304:18 5.22563e-05
18 *126:199 *1217:A1 0.000220934
19 *126:199 *304:18 0.000275408
20 *184:66 *1205:A0 0.000100477
21 *199:10 *1205:A0 1.34995e-05
22 *199:10 *304:18 7.51453e-06
23 *243:49 *1205:A0 0.000652956
24 *243:49 *304:18 2.46906e-05
25 *243:62 *304:18 9.58908e-05
26 *256:150 *1205:A0 3.95976e-05
*RES
1 *1388:X *304:4 23 
2 *304:4 *304:18 43.0707 
3 *304:18 *1205:A0 30.2914 
4 *304:4 *1217:A1 26.9564 
*END

*D_NET *305 0.0041995
*CONN
*I *1213:A1 I *D sky130_fd_sc_hd__mux2_1
*I *1134:A0 I *D sky130_fd_sc_hd__mux2_1
*I *1389:X O *D sky130_fd_sc_hd__dlygate4sd3_1
*CAP
1 *1213:A1 0
2 *1134:A0 0
3 *1389:X 0.000259585
4 *305:26 0.00127144
5 *305:12 0.00127144
6 *305:10 0.000259585
7 *305:10 *306:10 4.21228e-06
8 *305:10 *372:10 1.94812e-05
9 *305:26 *1215:A0 0.000270415
10 *1288:CLK *305:26 0.000102116
11 *1288:RESET_B *305:26 3.31536e-05
12 *32:10 *305:26 1.35764e-05
13 *62:10 *305:10 6.58399e-05
14 *126:216 *305:26 3.45026e-05
15 *197:10 *305:26 2.37508e-05
16 *246:68 *305:26 0.000230726
17 *299:31 *305:26 0.000339668
*RES
1 *1389:X *305:10 42.64 
2 *305:10 *305:12 15 
3 *305:12 *305:26 38.0964 
4 *305:26 *1134:A0 38 
5 *305:12 *1213:A1 23 
*END

*D_NET *306 0.000524912
*CONN
*I *1214:A I *D sky130_fd_sc_hd__clkbuf_1
*I *1390:X O *D sky130_fd_sc_hd__dlygate4sd3_1
*CAP
1 *1214:A 0
2 *1390:X 0.000217476
3 *306:10 0.000217476
4 *62:10 *306:10 8.57485e-05
5 *305:10 *306:10 4.21228e-06
*RES
1 *1390:X *306:10 41.48 
2 *306:10 *1214:A 38 
*END

*D_NET *307 0.00293982
*CONN
*I *1225:A1 I *D sky130_fd_sc_hd__mux2_1
*I *1196:A0 I *D sky130_fd_sc_hd__mux2_1
*I *1391:X O *D sky130_fd_sc_hd__dlygate4sd3_1
*CAP
1 *1225:A1 0
2 *1196:A0 0.000377262
3 *1391:X 0
4 *307:21 0.00105192
5 *307:4 0.00142918
6 *1196:A0 *325:76 5.67058e-05
7 *307:21 *1106:B 0
8 *307:21 *1225:A0 0
9 *307:21 *364:23 0
10 *1196:S *1196:A0 2.4754e-05
11 *202:8 *307:21 0
12 *256:246 *307:21 0
*RES
1 *1391:X *307:4 23 
2 *307:4 *1196:A0 29.3593 
3 *307:4 *307:21 45.4321 
4 *307:21 *1225:A1 23 
*END

*D_NET *308 0.00401401
*CONN
*I *1211:A1 I *D sky130_fd_sc_hd__mux2_1
*I *1132:A0 I *D sky130_fd_sc_hd__mux2_1
*I *1392:X O *D sky130_fd_sc_hd__dlygate4sd3_1
*CAP
1 *1211:A1 0.000371589
2 *1132:A0 0.00110096
3 *1392:X 0
4 *308:4 0.00147255
5 *1132:A0 *1392:A 0.000432192
6 *1132:A0 *324:116 3.22051e-05
7 *1211:A1 *1211:A0 5.67058e-05
8 *1135:A *1132:A0 0.000187069
9 *1222:A *1132:A0 0.000143655
10 *32:10 *1132:A0 0.000139653
11 *145:79 *1132:A0 1.59071e-05
12 *195:10 *1211:A1 6.15123e-05
*RES
1 *1392:X *308:4 23 
2 *308:4 *1132:A0 44.5843 
3 *308:4 *1211:A1 29.815 
*END

*D_NET *309 0.000985095
*CONN
*I *1249:A0 I *D sky130_fd_sc_hd__mux2_1
*I *1393:X O *D sky130_fd_sc_hd__dlygate4sd3_1
*CAP
1 *1249:A0 0
2 *1393:X 0.000236547
3 *309:6 0.000236547
4 *1249:A1 *309:6 5.79559e-05
5 *1249:S *309:6 5.56279e-05
6 *1252:A0 *309:6 0.000123934
7 *1252:S *309:6 0.000139446
8 *216:20 *309:6 5.3304e-05
9 *217:10 *309:6 5.70419e-05
10 *245:34 *309:6 2.46906e-05
*RES
1 *1393:X *309:6 29.815 
2 *309:6 *1249:A0 23 
*END

*D_NET *310 0.000949078
*CONN
*I *1157:A0 I *D sky130_fd_sc_hd__mux2_1
*I *1395:X O *D sky130_fd_sc_hd__dlygate4sd3_1
*CAP
1 *1157:A0 7.52228e-05
2 *1395:X 0.00025745
3 *310:10 0.000332673
4 *1157:A1 *1157:A0 3.26241e-05
5 *1157:S *1157:A0 7.61229e-06
6 *240:149 *310:10 0.000190742
7 *256:86 *310:10 3.41301e-05
8 *303:27 *1157:A0 1.86239e-05
*RES
1 *1395:X *310:10 42.9921 
2 *310:10 *1157:A0 39.5743 
*END

*D_NET *311 0.000278436
*CONN
*I *1189:A0 I *D sky130_fd_sc_hd__mux2_1
*I *1396:X O *D sky130_fd_sc_hd__dlygate4sd3_1
*CAP
1 *1189:A0 0.000139218
2 *1396:X 0.000139218
*RES
1 *1396:X *1189:A0 48.5271 
*END

*D_NET *312 0.000479589
*CONN
*I *1202:A0 I *D sky130_fd_sc_hd__mux2_1
*I *1397:X O *D sky130_fd_sc_hd__dlygate4sd3_1
*CAP
1 *1202:A0 5.55056e-05
2 *1397:X 5.55056e-05
3 *1130:B1 *1202:A0 6.98147e-05
4 *93:189 *1202:A0 1.57571e-05
5 *145:20 *1202:A0 5.50049e-05
6 *255:23 *1202:A0 0.000228001
*RES
1 *1397:X *1202:A0 48.5271 
*END

*D_NET *313 0.00116434
*CONN
*I *1191:A0 I *D sky130_fd_sc_hd__mux2_1
*I *1398:X O *D sky130_fd_sc_hd__dlygate4sd3_1
*CAP
1 *1191:A0 0.000154189
2 *1398:X 0.00018725
3 *313:8 0.000341439
4 *93:164 *313:8 4.49946e-05
5 *186:10 *313:8 0
6 *251:8 *1191:A0 5.50106e-05
7 *251:15 *1191:A0 0.000187129
8 *256:821 *313:8 0.000194327
*RES
1 *1398:X *313:8 42.0186 
2 *313:8 *1191:A0 40.5271 
*END

*D_NET *314 0.00592036
*CONN
*I *1154:A2 I *D sky130_fd_sc_hd__o221a_2
*I *1159:A2 I *D sky130_fd_sc_hd__a21o_1
*I *1153:A2 I *D sky130_fd_sc_hd__a22o_1
*I *1422:X O *D sky130_fd_sc_hd__buf_1
*CAP
1 *1154:A2 3.50752e-05
2 *1159:A2 0
3 *1153:A2 2.1517e-05
4 *1422:X 0.000534227
5 *314:37 0.000423133
6 *314:18 0.000940721
7 *314:10 0.000953128
8 *314:8 0.000956208
9 *314:10 *334:23 0.000143166
10 *314:37 *335:12 0
11 *314:37 *335:27 0.000263317
12 *1153:A1 *1153:A2 3.28357e-06
13 *1153:A1 *314:18 2.02872e-05
14 *1153:B1 *314:18 0.00026808
15 *1154:B2 *1154:A2 2.95526e-05
16 *1159:B1 *314:37 3.25817e-05
17 *1175:A *314:8 0.000123934
18 *93:93 *314:18 1.82544e-05
19 *93:114 *1154:A2 6.60739e-05
20 *93:120 *314:10 0
21 *93:218 *314:37 0.000176334
22 *157:16 *314:18 6.5117e-06
23 *158:10 *314:10 4.60997e-05
24 *158:10 *314:18 5.0268e-05
25 *160:10 *314:18 0.000160125
26 *162:12 *314:18 2.37243e-05
27 *162:18 *314:18 9.69942e-05
28 *240:51 *314:18 9.78729e-06
29 *240:51 *314:37 7.40718e-05
30 *240:57 *314:37 0.000109435
31 *256:86 *314:10 0.00014384
32 *256:607 *314:37 0.000190627
*RES
1 *1422:X *314:8 47.6736 
2 *314:8 *314:10 8.59643 
3 *314:10 *314:18 23.8243 
4 *314:18 *1153:A2 23.4971 
5 *314:18 *314:37 40.3779 
6 *314:37 *1159:A2 23 
7 *314:10 *1154:A2 39.1186 
*END

*D_NET *315 0.000376053
*CONN
*I *1174:A0 I *D sky130_fd_sc_hd__mux2_1
*I *1399:X O *D sky130_fd_sc_hd__dlygate4sd3_1
*CAP
1 *1174:A0 0
2 *1399:X 0.000146846
3 *315:10 0.000146846
4 *315:10 *1399:A 2.07484e-05
5 *315:10 *340:16 2.07484e-05
6 *93:120 *315:10 4.08641e-05
*RES
1 *1399:X *315:10 40.2993 
2 *315:10 *1174:A0 38 
*END

*D_NET *316 0.00158838
*CONN
*I *1200:A0 I *D sky130_fd_sc_hd__mux2_1
*I *1400:X O *D sky130_fd_sc_hd__dlygate4sd3_1
*CAP
1 *1200:A0 0.000312485
2 *1400:X 0.00026937
3 *316:10 0.000581854
4 *1312:RESET_B *316:10 0.000234542
5 *145:39 *1200:A0 3.24862e-05
6 *145:56 *1200:A0 0.000103726
7 *145:67 *1200:A0 5.39141e-05
*RES
1 *1400:X *316:10 43.1371 
2 *316:10 *1200:A0 44.3593 
*END

*D_NET *317 0.000996514
*CONN
*I *1172:A0 I *D sky130_fd_sc_hd__mux2_1
*I *1401:X O *D sky130_fd_sc_hd__dlygate4sd3_1
*CAP
1 *1172:A0 0.000211963
2 *1401:X 0.000215633
3 *317:8 0.000427596
4 *1172:A0 *319:12 1.94693e-05
5 *1172:S *1172:A0 5.83407e-05
6 *170:10 *317:8 6.35124e-05
*RES
1 *1401:X *317:8 42.0186 
2 *317:8 *1172:A0 41.0036 
*END

*D_NET *318 0.000468132
*CONN
*I *1146:A0 I *D sky130_fd_sc_hd__mux2_1
*I *1402:X O *D sky130_fd_sc_hd__dlygate4sd3_1
*CAP
1 *1146:A0 8.71628e-05
2 *1402:X 8.71628e-05
3 *1146:A0 *1139:A 0.00023585
4 *1146:A1 *1146:A0 5.79559e-05
*RES
1 *1402:X *1146:A0 48.5271 
*END

*D_NET *319 0.00200259
*CONN
*I *1172:A1 I *D sky130_fd_sc_hd__mux2_1
*I *1169:B1 I *D sky130_fd_sc_hd__o211a_1
*I *1423:X O *D sky130_fd_sc_hd__clkbuf_1
*CAP
1 *1172:A1 0
2 *1169:B1 0
3 *1423:X 0.000206234
4 *319:22 0.00041423
5 *319:12 0.000613702
6 *319:8 0.000405706
7 *319:22 *1169:A2 1.12796e-05
8 *319:22 *320:6 0.000139747
9 *1172:A0 *319:12 1.94693e-05
10 *43:10 *319:8 0.000116314
11 *170:10 *319:22 0
12 *174:12 *319:8 7.59039e-05
*RES
1 *1423:X *319:8 42.7229 
2 *319:8 *319:12 18.48 
3 *319:12 *319:22 37.54 
4 *319:22 *1169:B1 23 
5 *319:12 *1172:A1 23 
*END

*D_NET *320 0.00392456
*CONN
*I *1174:A1 I *D sky130_fd_sc_hd__mux2_1
*I *1170:B2 I *D sky130_fd_sc_hd__a22o_1
*I *1169:A2 I *D sky130_fd_sc_hd__o211a_1
*I *1424:X O *D sky130_fd_sc_hd__buf_1
*CAP
1 *1174:A1 0
2 *1170:B2 2.96324e-05
3 *1169:A2 2.60548e-05
4 *1424:X 0.000452228
5 *320:34 0.000554573
6 *320:15 0.000734335
7 *320:6 0.000628413
8 *320:34 *1166:A 6.17437e-06
9 *1169:A1 *320:15 5.14826e-05
10 *1170:A1 *320:34 1.59071e-05
11 *1170:A2 *320:34 0.00011189
12 *1170:B1 *1169:A2 3.28357e-06
13 *1170:B1 *320:15 5.92537e-05
14 *1170:B1 *320:34 2.57686e-05
15 *1171:A2 *320:34 0.000200542
16 *171:10 *320:15 0.000145171
17 *171:10 *320:34 0.000594358
18 *173:23 *320:34 5.79559e-05
19 *239:74 *320:34 0
20 *249:16 *320:34 7.65052e-05
21 *319:22 *1169:A2 1.12796e-05
22 *319:22 *320:6 0.000139747
*RES
1 *1424:X *320:6 31.2443 
2 *320:6 *1169:A2 23.8493 
3 *320:6 *320:15 3.48 
4 *320:15 *1170:B2 23.8493 
5 *320:15 *320:34 43.1121 
6 *320:34 *1174:A1 23 
*END

*D_NET *321 0.00245337
*CONN
*I *1371:A I *D sky130_fd_sc_hd__dlygate4sd3_1
*I *1297:Q O *D sky130_fd_sc_hd__dfrtp_1
*CAP
1 *1371:A 0
2 *1297:Q 0.00108706
3 *321:8 0.00108706
4 *1298:CLK *321:8 5.73288e-05
5 *1298:D *321:8 1.41244e-05
6 *1298:RESET_B *321:8 1.24766e-05
7 *256:737 *321:8 2.27755e-05
8 *256:755 *321:8 0.000172539
*RES
1 *1297:Q *321:8 39.24 
2 *321:8 *1371:A 23 
*END

*D_NET *322 0.000691006
*CONN
*I *1363:A I *D sky130_fd_sc_hd__dlygate4sd3_1
*I *1298:Q O *D sky130_fd_sc_hd__dfrtp_1
*CAP
1 *1363:A 0
2 *1298:Q 0.000323334
3 *322:8 0.000323334
4 *1330:RESET_B *322:8 0
5 *74:10 *322:8 4.43367e-05
6 *256:755 *322:8 0
*RES
1 *1298:Q *322:8 42.7229 
2 *322:8 *1363:A 38 
*END

*D_NET *323 0.00239287
*CONN
*I *1406:A I *D sky130_fd_sc_hd__dlygate4sd3_1
*I *1299:Q O *D sky130_fd_sc_hd__dfrtp_1
*CAP
1 *1406:A 0
2 *1299:Q 0.000712554
3 *323:16 0.000117861
4 *323:10 0.000830416
5 *209:10 *323:10 0.000102971
6 *275:14 *323:10 0.00062907
*RES
1 *1299:Q *323:10 37.4793 
2 *323:10 *323:16 31.9057 
3 *323:16 *1406:A 23 
*END

*D_NET *324 0.0186465
*CONN
*I *1177:A1 I *D sky130_fd_sc_hd__mux2_1
*I *1132:A1 I *D sky130_fd_sc_hd__mux2_1
*I *1205:A1 I *D sky130_fd_sc_hd__mux2_1
*I *1194:A1 I *D sky130_fd_sc_hd__mux2_1
*I *1382:A I *D sky130_fd_sc_hd__dlygate4sd3_1
*I *1283:A2 I *D sky130_fd_sc_hd__a21oi_1
*I *1077:C I *D sky130_fd_sc_hd__and3_1
*I *1160:A1 I *D sky130_fd_sc_hd__mux2_1
*I *1349:Q O *D sky130_fd_sc_hd__dfrtp_4
*CAP
1 *1177:A1 0
2 *1132:A1 0
3 *1205:A1 4.01724e-05
4 *1194:A1 0.000125048
5 *1382:A 0.000232032
6 *1283:A2 0
7 *1077:C 4.07078e-05
8 *1160:A1 0.000264555
9 *1349:Q 0.000344418
10 *324:116 0.000670819
11 *324:95 0.00147341
12 *324:74 0.00119412
13 *324:68 0.000757576
14 *324:55 0.000884591
15 *324:48 0.000447247
16 *324:31 0.000871723
17 *324:25 0.000997497
18 *324:10 0.00102106
19 *1077:C *1077:B 2.4997e-05
20 *1382:A *1181:A1 0.000127821
21 *1382:A *326:72 5.3304e-05
22 *324:25 *1164:A1 0.000247158
23 *324:25 *325:29 0.000193024
24 *324:25 *326:76 5.19959e-05
25 *324:31 *1077:B 0.000168688
26 *324:55 *325:46 0
27 *324:55 *326:76 0.000375293
28 *324:68 *325:46 0
29 *324:68 *325:61 0
30 *324:68 *326:76 3.47781e-05
31 *324:74 *325:61 2.79653e-05
32 *324:74 *325:76 2.56281e-05
33 *324:74 *326:35 0.00020299
34 *324:95 *325:76 0.000280563
35 *324:95 *326:35 7.03762e-05
36 *324:95 *326:48 0.00056706
37 *324:116 *1136:A1 0
38 *324:116 *326:48 0
39 *324:116 *343:10 0
40 *1132:A0 *324:116 3.22051e-05
41 *1160:A0 *1160:A1 5.79559e-05
42 *1160:S *1160:A1 0.000101764
43 *1160:S *324:10 0
44 *1161:A *1160:A1 8.9891e-05
45 *1177:A0 *324:74 2.95423e-05
46 *1205:A0 *1205:A1 2.19403e-05
47 *1205:A0 *324:116 5.00237e-05
48 *1219:S *324:116 1.34966e-05
49 *1284:A *324:48 0.000346188
50 *1284:B *324:48 4.04372e-05
51 *1297:RESET_B *324:10 1.22906e-05
52 *1299:CLK *324:31 9.13082e-05
53 *1324:CLK *324:74 0.000210428
54 *1329:RESET_B *1382:A 9.84851e-05
55 *40:8 *324:10 8.85189e-05
56 *48:10 *324:68 0.000346225
57 *93:40 *324:48 2.35642e-05
58 *94:25 *324:48 0.000104145
59 *145:79 *324:116 0.000146197
60 *146:10 *324:116 3.22879e-05
61 *162:44 *324:74 0.000170173
62 *173:34 *324:95 0.000135911
63 *173:40 *1194:A1 0.000174889
64 *173:40 *324:74 6.2088e-05
65 *173:40 *324:95 0.000605967
66 *176:10 *324:74 5.07687e-05
67 *178:10 *324:68 0.000277127
68 *184:66 *1205:A1 5.5792e-05
69 *184:66 *324:116 0.000145854
70 *240:92 *324:48 0.000272507
71 *240:94 *324:48 0.000272516
72 *241:18 *324:10 0
73 *241:68 *324:74 0.000166387
74 *256:150 *1205:A1 0.000136666
75 *256:150 *324:116 0.000144013
76 *256:168 *324:95 0.000347781
77 *256:525 *324:116 0.000172928
78 *256:537 *324:116 5.19151e-05
79 *256:722 *1160:A1 1.94693e-05
80 *256:722 *324:10 2.70366e-05
81 *285:6 *1077:C 8.10394e-05
82 *285:6 *324:31 0.000753001
83 *291:12 *324:48 8.06804e-06
84 *293:12 *1194:A1 0.000450323
85 *295:16 *1382:A 0.000182617
86 *298:8 *1382:A 0.000128164
87 *298:18 *324:10 0
*RES
1 *1349:Q *324:10 45.105 
2 *324:10 *1160:A1 43.3029 
3 *324:10 *324:25 8.59643 
4 *324:25 *324:31 26.1236 
5 *324:31 *1077:C 23.9321 
6 *324:31 *324:48 40.9164 
7 *324:48 *1283:A2 23 
8 *324:25 *324:55 5.075 
9 *324:55 *1382:A 44.815 
10 *324:55 *324:68 26.0614 
11 *324:68 *324:74 24.9636 
12 *324:74 *1194:A1 42.9093 
13 *324:74 *324:95 38.1586 
14 *324:95 *1205:A1 24.595 
15 *324:95 *324:116 46.4057 
16 *324:116 *1132:A1 23 
17 *324:68 *1177:A1 23 
*END

*D_NET *325 0.0181892
*CONN
*I *1196:A1 I *D sky130_fd_sc_hd__mux2_1
*I *1134:A1 I *D sky130_fd_sc_hd__mux2_1
*I *1207:A1 I *D sky130_fd_sc_hd__mux2_1
*I *1376:A I *D sky130_fd_sc_hd__dlygate4sd3_1
*I *1179:A1 I *D sky130_fd_sc_hd__mux2_1
*I *1077:B I *D sky130_fd_sc_hd__and3_1
*I *1162:A1 I *D sky130_fd_sc_hd__mux2_1
*I *1350:Q O *D sky130_fd_sc_hd__dfrtp_4
*CAP
1 *1196:A1 0
2 *1134:A1 7.70148e-05
3 *1207:A1 0.000887745
4 *1376:A 0
5 *1179:A1 5.44172e-05
6 *1077:B 0.000702137
7 *1162:A1 0
8 *1350:Q 0
9 *325:101 0.00135099
10 *325:88 0.00268242
11 *325:76 0.000902647
12 *325:61 0.000789751
13 *325:46 0.000971815
14 *325:29 0.00141872
15 *325:16 0.000560036
16 *325:4 0.00076703
17 *1134:A1 *350:8 0.000270915
18 *325:16 *1164:A1 0.000372407
19 *325:46 *331:10 1.01436e-05
20 *325:61 *331:10 0.000108681
21 *325:88 *338:8 8.78864e-05
22 *325:101 *342:10 0.000450395
23 *1077:C *1077:B 2.4997e-05
24 *1179:A0 *1179:A1 0.000139352
25 *1179:S *1179:A1 2.93747e-05
26 *1196:A0 *325:76 5.67058e-05
27 *1196:S *325:76 0.000269775
28 *1219:S *325:88 9.74774e-05
29 *1299:CLK *1077:B 9.66585e-05
30 *1299:CLK *325:29 0.000142678
31 *1303:RESET_B *325:61 5.16074e-05
32 *1303:RESET_B *325:76 3.37228e-05
33 *1309:RESET_B *325:76 2.31209e-05
34 *1315:CLK *1207:A1 0.000100477
35 *1324:CLK *325:61 0.00022052
36 *1328:CLK *1179:A1 1.41077e-05
37 *32:10 *325:101 5.98247e-05
38 *46:8 *325:61 0.000140884
39 *48:10 *325:46 7.70494e-05
40 *65:10 *325:101 3.6608e-05
41 *94:8 *1077:B 5.3304e-05
42 *126:180 *325:88 9.55771e-05
43 *147:8 *325:101 0.000377866
44 *154:34 *325:16 2.83509e-05
45 *176:10 *325:61 2.64609e-05
46 *188:10 *325:76 2.64616e-05
47 *241:10 *325:46 0.000105062
48 *241:53 *325:46 0.000111158
49 *241:68 *325:46 5.91279e-05
50 *241:68 *325:61 0.000453704
51 *243:62 *325:101 6.25133e-05
52 *243:112 *1134:A1 0.000144494
53 *256:158 *325:88 0.000300454
54 *256:168 *325:76 0.000125413
55 *256:168 *325:88 0
56 *256:170 *325:76 0.000283309
57 *256:184 *325:76 5.48668e-05
58 *275:24 *325:16 4.65096e-05
59 *277:20 *1207:A1 0.00041657
60 *285:6 *1077:B 3.76651e-06
61 *289:21 *325:88 0.000111106
62 *298:18 *325:46 0.000424736
63 *299:18 *1134:A1 6.55954e-05
64 *304:18 *325:101 3.67805e-05
65 *324:25 *325:29 0.000193024
66 *324:31 *1077:B 0.000168688
67 *324:55 *325:46 0
68 *324:68 *325:46 0
69 *324:68 *325:61 0
70 *324:74 *325:61 2.79653e-05
71 *324:74 *325:76 2.56281e-05
72 *324:95 *325:76 0.000280563
*RES
1 *1350:Q *325:4 23 
2 *325:4 *325:16 38.41 
3 *325:16 *1162:A1 23 
4 *325:4 *325:29 34.1843 
5 *325:29 *1077:B 33.8129 
6 *325:29 *325:46 27.8221 
7 *325:46 *1179:A1 39.5743 
8 *325:46 *325:61 11.4757 
9 *325:61 *1376:A 38 
10 *325:61 *325:76 26.745 
11 *325:76 *325:88 42.0971 
12 *325:88 *1207:A1 35.5321 
13 *325:88 *325:101 38.9664 
14 *325:101 *1134:A1 41.0036 
15 *325:76 *1196:A1 23 
*END

*D_NET *326 0.0122791
*CONN
*I *1181:A1 I *D sky130_fd_sc_hd__mux2_1
*I *1369:A I *D sky130_fd_sc_hd__dlygate4sd3_1
*I *1164:A1 I *D sky130_fd_sc_hd__mux2_1
*I *1136:A1 I *D sky130_fd_sc_hd__mux2_1
*I *1209:A1 I *D sky130_fd_sc_hd__mux2_1
*I *1198:A1 I *D sky130_fd_sc_hd__mux2_1
*I *1078:A I *D sky130_fd_sc_hd__and2_1
*I *1351:Q O *D sky130_fd_sc_hd__dfrtp_4
*CAP
1 *1181:A1 4.03524e-05
2 *1369:A 0
3 *1164:A1 0.000201707
4 *1136:A1 0.000469868
5 *1209:A1 0.000138432
6 *1198:A1 0
7 *1078:A 0
8 *1351:Q 0
9 *326:76 0.000431322
10 *326:72 0.000543372
11 *326:48 0.00125186
12 *326:35 0.00170066
13 *326:27 0.00154695
14 *326:20 0.000364555
15 *326:4 0.000581005
16 *326:48 *343:10 0.000138727
17 *1078:B *326:20 5.47983e-06
18 *1164:S *1164:A1 1.56542e-05
19 *1209:S *1209:A1 1.14154e-05
20 *1287:D *326:20 0.000141337
21 *1310:CLK *326:35 5.86006e-05
22 *1382:A *1181:A1 0.000127821
23 *1382:A *326:72 5.3304e-05
24 *94:25 *326:20 2.10502e-05
25 *126:10 *326:76 7.73301e-05
26 *154:34 *1164:A1 0.000154601
27 *167:10 *1164:A1 7.97499e-05
28 *167:10 *326:76 5.75756e-06
29 *173:34 *326:35 0.000127598
30 *173:40 *326:35 0.000663917
31 *178:10 *1181:A1 5.50106e-05
32 *178:10 *326:72 9.58714e-05
33 *184:49 *1209:A1 2.30292e-05
34 *184:66 *1209:A1 4.93223e-05
35 *184:66 *326:48 2.1431e-05
36 *188:10 *326:35 8.62783e-05
37 *192:10 *326:48 0.000137568
38 *241:10 *326:35 3.31683e-05
39 *241:53 *326:35 7.38527e-05
40 *241:68 *326:35 0.000148609
41 *243:19 *326:35 5.77294e-05
42 *243:19 *326:48 0
43 *243:43 *326:48 0
44 *243:86 *1136:A1 0
45 *243:86 *326:48 0
46 *243:97 *1136:A1 0
47 *256:537 *1136:A1 0
48 *256:621 *326:20 8.57012e-05
49 *275:24 *1164:A1 5.79559e-05
50 *291:12 *326:20 0
51 *291:12 *326:35 0.000364304
52 *295:16 *1181:A1 5.50049e-05
53 *298:8 *326:72 5.60292e-05
54 *299:18 *1136:A1 3.7122e-06
55 *301:12 *1136:A1 0
56 *301:12 *326:48 0
57 *324:25 *1164:A1 0.000247158
58 *324:25 *326:76 5.19959e-05
59 *324:55 *326:76 0.000375293
60 *324:68 *326:76 3.47781e-05
61 *324:74 *326:35 0.00020299
62 *324:95 *326:35 7.03762e-05
63 *324:95 *326:48 0.00056706
64 *324:116 *1136:A1 0
65 *324:116 *326:48 0
66 *325:16 *1164:A1 0.000372407
*RES
1 *1351:Q *326:4 23 
2 *326:4 *326:20 37.9543 
3 *326:20 *1078:A 23 
4 *326:4 *326:27 3.48 
5 *326:27 *326:35 44.5593 
6 *326:35 *1198:A1 38 
7 *326:35 *326:48 14.9971 
8 *326:48 *1209:A1 40.5479 
9 *326:48 *1136:A1 46.5136 
10 *326:27 *326:72 4.90929 
11 *326:72 *326:76 21.1314 
12 *326:76 *1164:A1 45.7679 
13 *326:76 *1369:A 38 
14 *326:72 *1181:A1 24.5743 
*END

*D_NET *327 0.00154992
*CONN
*I *1140:A I *D sky130_fd_sc_hd__inv_2
*I *1144:A0 I *D sky130_fd_sc_hd__mux2_1
*I *1291:Q O *D sky130_fd_sc_hd__dfrtp_1
*CAP
1 *1140:A 0
2 *1144:A0 6.62561e-05
3 *1291:Q 7.59234e-05
4 *327:29 0.000211793
5 *327:12 0.000378941
6 *327:8 0.000176815
7 *1147:A *327:29 5.5792e-05
8 *93:10 *1144:A0 0.000141954
9 *93:10 *327:12 0.000181131
10 *240:120 *327:8 5.56203e-05
11 *240:120 *327:29 0.000112861
12 *256:23 *327:29 0
13 *259:16 *327:29 9.28289e-05
*RES
1 *1291:Q *327:8 39.5536 
2 *327:8 *327:12 17.0507 
3 *327:12 *1144:A0 24.5743 
4 *327:12 *327:29 34.9093 
5 *327:29 *1140:A 23 
*END

*D_NET *328 0.00186749
*CONN
*I *1402:A I *D sky130_fd_sc_hd__dlygate4sd3_1
*I *1139:A I *D sky130_fd_sc_hd__inv_2
*I *1292:Q O *D sky130_fd_sc_hd__dfrtp_1
*CAP
1 *1402:A 0.000105171
2 *1139:A 0.000111572
3 *1292:Q 7.74675e-05
4 *328:10 0.000216743
5 *328:8 7.74675e-05
6 *1146:A0 *1139:A 0.00023585
7 *1146:A1 *1139:A 0.000259331
8 *93:40 *328:8 0.000140875
9 *154:27 *1139:A 0.00022403
10 *154:34 *1139:A 0.000189176
11 *154:34 *1402:A 0.000229801
*RES
1 *1292:Q *328:8 39.9057 
2 *328:8 *328:10 15 
3 *328:10 *1139:A 29.3386 
4 *328:10 *1402:A 25.5271 
*END

*D_NET *329 0.00102061
*CONN
*I *1372:A I *D sky130_fd_sc_hd__dlygate4sd3_1
*I *1138:A I *D sky130_fd_sc_hd__inv_2
*I *1293:Q O *D sky130_fd_sc_hd__dfrtp_1
*CAP
1 *1372:A 0
2 *1138:A 0
3 *1293:Q 0.000112446
4 *329:23 0.000213154
5 *329:10 0.000325599
6 *1294:RESET_B *329:23 0
7 *162:18 *329:23 4.6318e-06
8 *240:34 *329:10 7.50355e-05
9 *240:34 *329:23 0.000189848
10 *240:38 *329:23 9.98995e-05
*RES
1 *1293:Q *329:10 25.5686 
2 *329:10 *1138:A 23 
3 *329:10 *329:23 35.0129 
4 *329:23 *1372:A 23 
*END

*D_NET *330 0.000778854
*CONN
*I *1365:A I *D sky130_fd_sc_hd__dlygate4sd3_1
*I *1303:Q O *D sky130_fd_sc_hd__dfrtp_1
*CAP
1 *1365:A 0
2 *1303:Q 0.000383736
3 *330:10 0.000383736
4 *1327:RESET_B *330:10 1.13812e-05
*RES
1 *1303:Q *330:10 43.3857 
2 *330:10 *1365:A 38 
*END

*D_NET *331 0.000674896
*CONN
*I *1375:A I *D sky130_fd_sc_hd__dlygate4sd3_1
*I *1304:Q O *D sky130_fd_sc_hd__dfrtp_1
*CAP
1 *1375:A 3.59787e-05
2 *1304:Q 0.000173594
3 *331:10 0.000209573
4 *1179:A0 *1375:A 5.50106e-05
5 *1179:S *1375:A 3.22879e-05
6 *48:10 *331:10 4.96264e-05
7 *325:46 *331:10 1.01436e-05
8 *325:61 *331:10 0.000108681
*RES
1 *1304:Q *331:10 40.6514 
2 *331:10 *1375:A 39.1186 
*END

*D_NET *332 0.000646492
*CONN
*I *1379:A I *D sky130_fd_sc_hd__dlygate4sd3_1
*I *1305:Q O *D sky130_fd_sc_hd__dfrtp_1
*CAP
1 *1379:A 0
2 *1305:Q 0.000252408
3 *332:6 0.000252408
4 *1234:A *332:6 0.000141675
*RES
1 *1305:Q *332:6 27.9093 
2 *332:6 *1379:A 23 
*END

*D_NET *333 0.00192573
*CONN
*I *1151:A I *D sky130_fd_sc_hd__inv_2
*I *1155:A0 I *D sky130_fd_sc_hd__mux2_1
*I *1294:Q O *D sky130_fd_sc_hd__dfrtp_1
*CAP
1 *1151:A 0.000247485
2 *1155:A0 4.07717e-05
3 *1294:Q 0.000275279
4 *333:8 0.000563536
5 *93:93 *1151:A 0.000108559
6 *93:93 *1155:A0 4.334e-05
7 *163:10 *1151:A 0
8 *240:149 *1151:A 2.49086e-05
9 *256:54 *333:8 0.000100559
10 *292:16 *1151:A 0.000435013
11 *292:16 *1155:A0 8.62783e-05
*RES
1 *1294:Q *333:8 41.48 
2 *333:8 *1155:A0 39.2014 
3 *333:8 *1151:A 44.4836 
*END

*D_NET *334 0.000764595
*CONN
*I *1395:A I *D sky130_fd_sc_hd__dlygate4sd3_1
*I *1150:A I *D sky130_fd_sc_hd__inv_2
*I *1295:Q O *D sky130_fd_sc_hd__dfrtp_1
*CAP
1 *1395:A 0
2 *1150:A 5.02888e-05
3 *1295:Q 0.000107015
4 *334:23 0.000101355
5 *334:6 0.000258659
6 *1295:RESET_B *334:6 6.17437e-06
7 *256:76 *1150:A 5.58003e-05
8 *256:76 *334:6 4.21362e-05
9 *314:10 *334:23 0.000143166
*RES
1 *1295:Q *334:6 25.0507 
2 *334:6 *1150:A 24.4707 
3 *334:6 *334:23 32.4029 
4 *334:23 *1395:A 23 
*END

*D_NET *335 0.00222401
*CONN
*I *1149:A I *D sky130_fd_sc_hd__inv_2
*I *1403:A I *D sky130_fd_sc_hd__dlygate4sd3_1
*I *1296:Q O *D sky130_fd_sc_hd__dfrtp_1
*CAP
1 *1149:A 0
2 *1403:A 0
3 *1296:Q 8.53991e-05
4 *335:27 0.000318701
5 *335:12 0.000189432
6 *335:6 0.000593532
7 *93:120 *335:12 1.29944e-05
8 *93:218 *335:12 2.04934e-05
9 *162:44 *335:6 4.98295e-05
10 *162:44 *335:27 0.00014121
11 *240:51 *335:27 0.000140927
12 *240:57 *335:27 0.000138747
13 *256:60 *335:12 8.58779e-05
14 *256:76 *335:12 0.000158796
15 *256:607 *335:27 2.4754e-05
16 *314:37 *335:12 0
17 *314:37 *335:27 0.000263317
*RES
1 *1296:Q *335:6 24.0979 
2 *335:6 *335:12 33.6664 
3 *335:12 *1403:A 23 
4 *335:6 *335:27 36.8357 
5 *335:27 *1149:A 23 
*END

*D_NET *336 9.45187e-05
*CONN
*I *1377:A I *D sky130_fd_sc_hd__dlygate4sd3_1
*I *1309:Q O *D sky130_fd_sc_hd__dfrtp_1
*CAP
1 *1377:A 3.2572e-05
2 *1309:Q 3.2572e-05
3 *1309:RESET_B *1377:A 2.93747e-05
*RES
1 *1309:Q *1377:A 46.6214 
*END

*D_NET *337 0.000451676
*CONN
*I *1391:A I *D sky130_fd_sc_hd__dlygate4sd3_1
*I *1310:Q O *D sky130_fd_sc_hd__dfrtp_1
*CAP
1 *1391:A 0
2 *1310:Q 0.000127809
3 *337:10 0.000127809
4 *1325:CLK *337:10 0
5 *126:180 *337:10 0.000138727
6 *256:234 *337:10 5.73309e-05
*RES
1 *1310:Q *337:10 40.5271 
2 *337:10 *1391:A 38 
*END

*D_NET *338 0.000369781
*CONN
*I *1374:A I *D sky130_fd_sc_hd__dlygate4sd3_1
*I *1311:Q O *D sky130_fd_sc_hd__dfrtp_1
*CAP
1 *1374:A 7.27678e-05
2 *1311:Q 4.7616e-05
3 *338:8 0.000120384
4 *126:180 *338:8 4.11274e-05
5 *325:88 *338:8 8.78864e-05
*RES
1 *1311:Q *338:8 39.2014 
2 *338:8 *1374:A 39.4707 
*END

*D_NET *339 0.00269187
*CONN
*I *1401:A I *D sky130_fd_sc_hd__dlygate4sd3_1
*I *1168:A I *D sky130_fd_sc_hd__inv_2
*I *1300:Q O *D sky130_fd_sc_hd__dfrtp_1
*CAP
1 *1401:A 0.000340214
2 *1168:A 0.000552166
3 *1300:Q 5.94402e-05
4 *339:8 0.000951819
5 *1168:A *340:16 0
6 *1173:A *1168:A 0
7 *1300:RESET_B *339:8 2.45549e-06
8 *1301:CLK *1168:A 0.000119514
9 *1301:RESET_B *1168:A 9.29579e-06
10 *169:10 *1168:A 4.6318e-06
11 *169:10 *1401:A 0.000168388
12 *170:10 *1168:A 1.76557e-05
13 *175:8 *1168:A 0
14 *242:8 *1168:A 3.3123e-05
15 *242:8 *1401:A 0.000104706
16 *242:36 *1401:A 5.88075e-05
17 *256:86 *1168:A 0.000145049
18 *256:100 *1168:A 0.000114083
19 *256:112 *1168:A 0
20 *256:112 *339:8 1.05235e-05
*RES
1 *1300:Q *339:8 38.6214 
2 *339:8 *1168:A 48.6471 
3 *339:8 *1401:A 45.54 
*END

*D_NET *340 0.00128214
*CONN
*I *1399:A I *D sky130_fd_sc_hd__dlygate4sd3_1
*I *1167:A I *D sky130_fd_sc_hd__inv_2
*I *1301:Q O *D sky130_fd_sc_hd__dfrtp_1
*CAP
1 *1399:A 0.000176688
2 *1167:A 0
3 *1301:Q 0
4 *340:16 0.00041721
5 *340:4 0.000593898
6 *1168:A *340:16 0
7 *93:120 *340:16 0
8 *175:8 *340:16 4.08641e-05
9 *256:112 *340:16 1.19796e-05
10 *315:10 *1399:A 2.07484e-05
11 *315:10 *340:16 2.07484e-05
*RES
1 *1301:Q *340:4 23 
2 *340:4 *340:16 36.7321 
3 *340:16 *1167:A 23 
4 *340:4 *1399:A 26.48 
*END

*D_NET *341 0.00169532
*CONN
*I *1361:A I *D sky130_fd_sc_hd__dlygate4sd3_1
*I *1166:A I *D sky130_fd_sc_hd__inv_2
*I *1302:Q O *D sky130_fd_sc_hd__dfrtp_1
*CAP
1 *1361:A 0.000105014
2 *1166:A 0.000231888
3 *1302:Q 0.000165481
4 *341:8 0.000502384
5 *1170:A2 *1166:A 5.3304e-05
6 *1176:A2 *1166:A 1.0092e-05
7 *1176:A2 *1361:A 0.000127662
8 *1302:RESET_B *341:8 3.18272e-05
9 *168:27 *1166:A 2.02872e-05
10 *249:16 *1166:A 0.000301149
11 *256:126 *341:8 0.00014006
12 *320:34 *1166:A 6.17437e-06
*RES
1 *1302:Q *341:8 40.5271 
2 *341:8 *1166:A 43.1164 
3 *341:8 *1361:A 39.9057 
*END

*D_NET *342 0.0013587
*CONN
*I *1388:A I *D sky130_fd_sc_hd__dlygate4sd3_1
*I *1315:Q O *D sky130_fd_sc_hd__dfrtp_1
*CAP
1 *1388:A 0
2 *1315:Q 0.000321721
3 *342:10 0.000321721
4 *1220:A *342:10 0.000185657
5 *65:10 *342:10 2.231e-05
6 *304:18 *342:10 5.68958e-05
7 *325:101 *342:10 0.000450395
*RES
1 *1315:Q *342:10 31.6379 
2 *342:10 *1388:A 23 
*END

*D_NET *343 0.00129285
*CONN
*I *1362:A I *D sky130_fd_sc_hd__dlygate4sd3_1
*I *1316:Q O *D sky130_fd_sc_hd__dfrtp_1
*CAP
1 *1362:A 0
2 *1316:Q 0.000384007
3 *343:10 0.000384007
4 *184:66 *343:10 5.31444e-05
5 *243:49 *343:10 0.000269781
6 *256:150 *343:10 6.31864e-05
7 *324:116 *343:10 0
8 *326:48 *343:10 0.000138727
*RES
1 *1316:Q *343:10 44.815 
2 *343:10 *1362:A 38 
*END

*D_NET *344 0.000497658
*CONN
*I *1386:A I *D sky130_fd_sc_hd__dlygate4sd3_1
*I *1317:Q O *D sky130_fd_sc_hd__dfrtp_1
*CAP
1 *1386:A 0.000150142
2 *1317:Q 0.000150142
3 *301:12 *1386:A 0.000197374
*RES
1 *1317:Q *1386:A 49.9564 
*END

*D_NET *345 0.00102547
*CONN
*I *1185:A I *D sky130_fd_sc_hd__inv_2
*I *1396:A I *D sky130_fd_sc_hd__dlygate4sd3_1
*I *1306:Q O *D sky130_fd_sc_hd__dfrtp_1
*CAP
1 *1185:A 0.000176167
2 *1396:A 6.68926e-05
3 *1306:Q 0.000104863
4 *345:8 0.000347923
5 *1189:S *1185:A 0
6 *93:139 *1185:A 0
7 *93:147 *1185:A 0.000166522
8 *93:147 *1396:A 7.95762e-05
9 *180:28 *1185:A 5.41385e-05
10 *181:10 *1185:A 2.93845e-05
11 *242:60 *1185:A 0
12 *242:75 *1185:A 0
*RES
1 *1306:Q *345:8 39.9057 
2 *345:8 *1396:A 39.5743 
3 *345:8 *1185:A 42.06 
*END

*D_NET *346 0.00220624
*CONN
*I *1398:A I *D sky130_fd_sc_hd__dlygate4sd3_1
*I *1184:A I *D sky130_fd_sc_hd__inv_2
*I *1307:Q O *D sky130_fd_sc_hd__dfrtp_1
*CAP
1 *1398:A 0
2 *1184:A 0
3 *1307:Q 0
4 *346:27 0.000221545
5 *346:14 0.000449708
6 *346:4 0.000671253
7 *1307:RESET_B *346:14 4.87918e-05
8 *93:164 *346:27 0.000325056
9 *180:10 *346:14 9.36522e-05
10 *186:10 *346:14 0
11 *242:81 *346:14 8.46881e-05
12 *251:8 *346:14 0.000228903
13 *252:12 *346:27 0
14 *256:811 *346:14 8.264e-05
*RES
1 *1307:Q *346:4 23 
2 *346:4 *346:14 38.3893 
3 *346:14 *1184:A 23 
4 *346:4 *346:27 35.2407 
5 *346:27 *1398:A 23 
*END

*D_NET *347 0.00145199
*CONN
*I *1383:A I *D sky130_fd_sc_hd__dlygate4sd3_1
*I *1183:A I *D sky130_fd_sc_hd__inv_2
*I *1308:Q O *D sky130_fd_sc_hd__dfrtp_1
*CAP
1 *1383:A 0
2 *1183:A 0
3 *1308:Q 7.91427e-05
4 *347:25 0.00018323
5 *347:14 0.000389585
6 *347:6 0.000651958
7 *1308:RESET_B *347:6 5.3304e-05
8 *1308:RESET_B *347:14 4.86151e-05
9 *1308:RESET_B *347:25 3.47781e-05
10 *145:56 *347:25 1.13812e-05
*RES
1 *1308:Q *347:6 24.0979 
2 *347:6 *347:14 35.3857 
3 *347:14 *1183:A 23 
4 *347:6 *347:25 33.6664 
5 *347:25 *1383:A 23 
*END

*D_NET *348 0.00163331
*CONN
*I *1392:A I *D sky130_fd_sc_hd__dlygate4sd3_1
*I *1288:Q O *D sky130_fd_sc_hd__dfrtp_1
*CAP
1 *1392:A 0.000445197
2 *1288:Q 6.95826e-05
3 *348:8 0.00051478
4 *1132:A0 *1392:A 0.000432192
5 *1222:A *1392:A 0.000143655
6 *126:216 *348:8 0
7 *246:45 *348:8 2.79004e-05
*RES
1 *1288:Q *348:8 39.2014 
2 *348:8 *1392:A 48.9993 
*END

*D_NET *349 0.00106198
*CONN
*I *1389:A I *D sky130_fd_sc_hd__dlygate4sd3_1
*I *1289:Q O *D sky130_fd_sc_hd__dfrtp_1
*CAP
1 *1389:A 0
2 *1289:Q 0.000450109
3 *349:8 0.000450109
4 *1216:A *349:8 8.26478e-05
5 *1289:RESET_B *349:8 7.9111e-05
*RES
1 *1289:Q *349:8 31.265 
2 *349:8 *1389:A 23 
*END

*D_NET *350 0.00124647
*CONN
*I *1384:A I *D sky130_fd_sc_hd__dlygate4sd3_1
*I *1290:Q O *D sky130_fd_sc_hd__dfrtp_1
*CAP
1 *1384:A 0
2 *1290:Q 0.000351179
3 *350:8 0.000351179
4 *1134:A1 *350:8 0.000270915
5 *1134:S *350:8 5.56356e-05
6 *145:67 *350:8 0.000145163
7 *243:112 *350:8 4.18667e-05
8 *299:18 *350:8 3.05357e-05
*RES
1 *1290:Q *350:8 30.3121 
2 *350:8 *1384:A 23 
*END

*D_NET *351 0.00206608
*CONN
*I *1400:A I *D sky130_fd_sc_hd__dlygate4sd3_1
*I *1128:A I *D sky130_fd_sc_hd__inv_2
*I *1312:Q O *D sky130_fd_sc_hd__dfrtp_1
*CAP
1 *1400:A 0.000172568
2 *1128:A 0
3 *1312:Q 0
4 *351:12 0.000633866
5 *351:4 0.000806434
6 *1312:RESET_B *1400:A 0.000272715
7 *1312:RESET_B *351:12 6.4554e-05
8 *141:24 *351:12 9.54606e-05
9 *145:39 *351:12 2.04854e-05
*RES
1 *1312:Q *351:4 23 
2 *351:4 *351:12 39.1971 
3 *351:12 *1128:A 23 
4 *351:4 *1400:A 27.8057 
*END

*D_NET *352 0.00173173
*CONN
*I *1127:A I *D sky130_fd_sc_hd__inv_2
*I *1397:A I *D sky130_fd_sc_hd__dlygate4sd3_1
*I *1313:Q O *D sky130_fd_sc_hd__dfrtp_1
*CAP
1 *1127:A 0.00010838
2 *1397:A 0
3 *1313:Q 0.000262627
4 *352:14 0.000123897
5 *352:6 0.000494904
6 *1130:B1 *352:14 5.90675e-06
7 *1131:B1 *352:6 6.39489e-06
8 *1131:B2 *1127:A 4.21921e-05
9 *1131:B2 *352:6 0.000273157
10 *140:22 *1127:A 9.65021e-05
11 *140:22 *352:6 0.000142173
12 *140:28 *352:14 6.8582e-06
13 *142:16 *1127:A 5.55743e-06
14 *144:8 *352:14 0.000110593
15 *145:20 *352:6 2.44256e-05
16 *253:6 *352:6 2.81612e-05
*RES
1 *1313:Q *352:6 28.3857 
2 *352:6 *352:14 32.4029 
3 *352:14 *1397:A 23 
4 *352:6 *1127:A 25.4236 
*END

*D_NET *353 0.0012583
*CONN
*I *1126:A I *D sky130_fd_sc_hd__inv_2
*I *1394:A I *D sky130_fd_sc_hd__dlygate4sd3_1
*I *1314:Q O *D sky130_fd_sc_hd__dfrtp_1
*CAP
1 *1126:A 0.000251254
2 *1394:A 2.1093e-05
3 *1314:Q 0.000250403
4 *353:8 0.00052275
5 *1129:A1 *353:8 0
6 *1313:RESET_B *353:8 2.91178e-05
7 *56:8 *1126:A 0
8 *56:8 *353:8 0
9 *93:189 *1394:A 2.93747e-05
10 *140:10 *1126:A 0.00010018
11 *191:10 *1126:A 0
12 *254:8 *1126:A 2.4754e-05
13 *254:10 *1126:A 0
14 *254:12 *1126:A 0
15 *255:23 *1394:A 2.93747e-05
*RES
1 *1314:Q *353:8 42.7229 
2 *353:8 *1394:A 38.6214 
3 *353:8 *1126:A 42.6814 
*END

*D_NET *354 0.000383655
*CONN
*I *1110:A I *D sky130_fd_sc_hd__buf_6
*I *1287:Q O *D sky130_fd_sc_hd__dfrtp_1
*CAP
1 *1110:A 0.000152959
2 *1287:Q 0.000152959
3 *256:627 *1110:A 7.77368e-05
*RES
1 *1287:Q *1110:A 49.0243 
*END

*D_NET *355 0.0173906
*CONN
*I *1241:A1 I *D sky130_fd_sc_hd__mux2_1
*I *1262:A I *D sky130_fd_sc_hd__nand2_1
*I *1089:A1 I *D sky130_fd_sc_hd__a211o_1
*I *1263:A I *D sky130_fd_sc_hd__or2_1
*I *1082:A I *D sky130_fd_sc_hd__inv_2
*I *1093:B_N I *D sky130_fd_sc_hd__or2b_1
*I *1098:B I *D sky130_fd_sc_hd__xnor2_1
*I *1340:Q O *D sky130_fd_sc_hd__dfrtp_4
*CAP
1 *1241:A1 0
2 *1262:A 0.000370832
3 *1089:A1 0
4 *1263:A 0.000403115
5 *1082:A 4.60364e-05
6 *1093:B_N 4.19934e-05
7 *1098:B 0
8 *1340:Q 0.000126462
9 *355:78 0.000528377
10 *355:59 0.000691097
11 *355:48 0.00116557
12 *355:24 0.000419084
13 *355:20 0.00075508
14 *355:18 0.0030787
15 *355:10 0.00233357
16 *355:8 0.000664424
17 *355:10 *378:10 8.41012e-05
18 *355:24 *358:25 3.90213e-05
19 *355:24 *359:27 8.5351e-05
20 *1089:A2 *1262:A 2.93747e-05
21 *1089:C1 *1262:A 4.88591e-05
22 *1089:C1 *355:78 1.24376e-05
23 *1100:A2 *355:20 0.000120358
24 *1100:A2 *355:24 2.58557e-05
25 *1116:A1 *1263:A 3.86731e-05
26 *1120:A_N *355:24 8.43224e-05
27 *1251:A1 *355:20 0.000261339
28 *1251:A1 *355:48 0.000416182
29 *1262:B *1262:A 4.13717e-05
30 *1263:B *1263:A 0.000147656
31 *1276:A1 *355:48 0.000183473
32 *1426:A *355:10 0
33 *30:58 *355:10 0
34 *88:14 *355:48 6.09335e-06
35 *96:8 *355:78 2.76611e-06
36 *97:36 *1263:A 0.000165384
37 *97:36 *355:48 2.33161e-05
38 *97:36 *355:78 0.000234976
39 *98:111 *355:48 3.88725e-05
40 *99:31 *1262:A 8.564e-05
41 *99:31 *355:78 5.58003e-05
42 *99:69 *355:20 0.000187065
43 *99:69 *355:24 0.000841277
44 *102:18 *1262:A 3.91386e-05
45 *102:28 *1082:A 5.71054e-05
46 *102:28 *355:59 0.00012015
47 *105:12 *1262:A 2.75275e-06
48 *108:27 *355:20 5.71002e-06
49 *111:14 *355:24 6.32688e-05
50 *115:10 *355:24 0.000219848
51 *117:25 *355:48 8.57577e-05
52 *120:10 *355:48 0
53 *120:18 *355:48 0.000580282
54 *129:52 *355:20 0.000341923
55 *129:52 *355:48 3.78598e-05
56 *131:16 *355:48 0
57 *138:16 *355:48 8.22421e-06
58 *224:6 *1262:A 2.10502e-05
59 *233:10 *355:48 0.00031749
60 *256:353 *355:10 0.000141237
61 *256:355 *355:10 4.94404e-05
62 *256:355 *355:18 1.16383e-05
63 *256:459 *355:48 1.16472e-05
64 *256:465 *355:18 0.000956415
65 *256:480 *355:18 0.000133616
66 *257:10 *355:10 0
67 *284:8 *355:10 0.000302135
*RES
1 *1340:Q *355:8 40.0507 
2 *355:8 *355:10 13.5264 
3 *355:10 *355:18 21.1943 
4 *355:18 *355:20 8.42036 
5 *355:20 *355:24 29.2307 
6 *355:24 *1098:B 23 
7 *355:20 *1093:B_N 38.6214 
8 *355:18 *355:48 35.9525 
9 *355:48 *1082:A 24.0979 
10 *355:48 *355:59 17.5271 
11 *355:59 *1263:A 47.0936 
12 *355:59 *355:78 18.9357 
13 *355:78 *1089:A1 23 
14 *355:78 *1262:A 29.6079 
15 *355:10 *1241:A1 38 
*END

*D_NET *356 0.000208428
*CONN
*I *1083:A I *D sky130_fd_sc_hd__clkbuf_4
*I *1341:Q O *D sky130_fd_sc_hd__dfrtp_1
*CAP
1 *1083:A 9.96549e-05
2 *1341:Q 9.96549e-05
3 *99:8 *1083:A 9.11847e-06
*RES
1 *1341:Q *1083:A 47.595 
*END

*D_NET *357 0.000380443
*CONN
*I *1086:A I *D sky130_fd_sc_hd__clkbuf_4
*I *1342:Q O *D sky130_fd_sc_hd__dfrtp_1
*CAP
1 *1086:A 0
2 *1342:Q 0.000107157
3 *357:8 0.000107157
4 *247:68 *357:8 0.000166129
*RES
1 *1342:Q *357:8 40.2579 
2 *357:8 *1086:A 38 
*END

*D_NET *358 0.00229182
*CONN
*I *1098:A I *D sky130_fd_sc_hd__xnor2_1
*I *1235:A0 I *D sky130_fd_sc_hd__mux2_1
*I *1330:Q O *D sky130_fd_sc_hd__dfrtp_1
*CAP
1 *1098:A 0
2 *1235:A0 0
3 *1330:Q 0.000177833
4 *358:25 0.000279338
5 *358:14 0.000343791
6 *358:6 0.000800962
7 *358:14 *359:10 5.44889e-06
8 *358:25 *359:27 0.000380192
9 *1330:RESET_B *358:6 2.95526e-05
10 *1330:RESET_B *358:14 0.000149925
11 *207:10 *358:14 8.57577e-05
12 *355:24 *358:25 3.90213e-05
*RES
1 *1330:Q *358:6 25.5271 
2 *358:6 *358:14 35.6136 
3 *358:14 *1235:A0 23 
4 *358:6 *358:25 36.8357 
5 *358:25 *1098:A 23 
*END

*D_NET *359 0.00436305
*CONN
*I *1097:A I *D sky130_fd_sc_hd__xnor2_1
*I *1237:A0 I *D sky130_fd_sc_hd__mux2_1
*I *1331:Q O *D sky130_fd_sc_hd__dfrtp_1
*CAP
1 *1097:A 0
2 *1237:A0 0.000636823
3 *1331:Q 0.000253598
4 *359:27 0.000589486
5 *359:12 0.00122631
6 *359:10 0.000253598
7 *1330:CLK *1237:A0 0.000179413
8 *1330:RESET_B *1237:A0 0.000121609
9 *1330:RESET_B *359:27 0.000122515
10 *73:10 *359:10 1.68817e-05
11 *126:136 *359:10 0.000235687
12 *207:10 *359:10 0.000155657
13 *208:12 *1237:A0 0.000100477
14 *355:24 *359:27 8.5351e-05
15 *358:14 *359:10 5.44889e-06
16 *358:25 *359:27 0.000380192
*RES
1 *1331:Q *359:10 43.8414 
2 *359:10 *359:12 15 
3 *359:12 *1237:A0 32.1971 
4 *359:12 *359:27 41.4964 
5 *359:27 *1097:A 23 
*END

*D_NET *360 0.0020628
*CONN
*I *1096:A I *D sky130_fd_sc_hd__xnor2_1
*I *1239:A0 I *D sky130_fd_sc_hd__mux2_1
*I *1332:Q O *D sky130_fd_sc_hd__dfrtp_1
*CAP
1 *1096:A 0.000371407
2 *1239:A0 0
3 *1332:Q 0
4 *360:12 0.000590809
5 *360:4 0.000962217
6 *1332:RESET_B *360:12 0.000138371
*RES
1 *1332:Q *360:4 23 
2 *360:4 *360:12 38.0164 
3 *360:12 *1239:A0 23 
4 *360:4 *1096:A 29.38 
*END

*D_NET *361 0.0046373
*CONN
*I *1093:A I *D sky130_fd_sc_hd__or2b_1
*I *1092:A2 I *D sky130_fd_sc_hd__a221oi_2
*I *1229:A0 I *D sky130_fd_sc_hd__mux2_1
*I *1327:Q O *D sky130_fd_sc_hd__dfrtp_1
*CAP
1 *1093:A 0.000126721
2 *1092:A2 0
3 *1229:A0 0
4 *1327:Q 0.00062009
5 *361:25 0.00123889
6 *361:12 0.00111217
7 *361:10 0.00062009
8 *361:25 *362:35 8.74509e-05
9 *1327:RESET_B *361:10 0.000249301
10 *98:39 *361:25 5.8118e-05
11 *108:10 *361:25 1.23353e-05
12 *109:10 *1093:A 2.36123e-05
13 *109:10 *361:25 0.000230219
14 *126:25 *361:25 5.41385e-05
15 *126:32 *361:25 1.76557e-05
16 *126:36 *361:10 3.64813e-05
17 *126:115 *361:25 0.000134193
18 *244:46 *361:10 1.58283e-05
19 *244:50 *361:10 0
*RES
1 *1327:Q *361:10 47.7771 
2 *361:10 *361:12 15 
3 *361:12 *1229:A0 23 
4 *361:12 *361:25 17.4829 
5 *361:25 *1092:A2 23 
6 *361:25 *1093:A 25.7757 
*END

*D_NET *362 0.00431917
*CONN
*I *1095:A2 I *D sky130_fd_sc_hd__o2111a_1
*I *1092:B1 I *D sky130_fd_sc_hd__a221oi_2
*I *1231:A0 I *D sky130_fd_sc_hd__mux2_1
*I *1328:Q O *D sky130_fd_sc_hd__dfrtp_1
*CAP
1 *1095:A2 0
2 *1092:B1 0
3 *1231:A0 0
4 *1328:Q 0
5 *362:35 0.00026585
6 *362:27 0.000970924
7 *362:14 0.000628224
8 *362:4 0.0013333
9 *362:27 *1091:A_N 5.3304e-05
10 *1095:A1 *362:27 5.56279e-05
11 *1095:A1 *362:35 5.91037e-05
12 *1328:D *362:14 5.11621e-05
13 *1328:RESET_B *362:14 2.8521e-05
14 *71:8 *362:14 3.76761e-05
15 *102:38 *362:27 5.67058e-05
16 *102:38 *362:35 0
17 *102:49 *362:27 0.00027662
18 *107:10 *362:27 2.30292e-05
19 *107:10 *362:35 3.94411e-05
20 *126:25 *362:14 5.01469e-05
21 *162:55 *362:14 0
22 *256:673 *362:14 2.96976e-05
23 *290:19 *362:14 0
24 *296:10 *362:27 0.000272383
25 *361:25 *362:35 8.74509e-05
*RES
1 *1328:Q *362:4 23 
2 *362:4 *362:14 41.1236 
3 *362:14 *1231:A0 23 
4 *362:4 *362:27 14.6243 
5 *362:27 *362:35 34.06 
6 *362:35 *1092:B1 23 
7 *362:27 *1095:A2 23 
*END

*D_NET *363 0.00220063
*CONN
*I *1233:A0 I *D sky130_fd_sc_hd__mux2_1
*I *1091:A_N I *D sky130_fd_sc_hd__and2b_1
*I *1094:B_N I *D sky130_fd_sc_hd__or2b_1
*I *1329:Q O *D sky130_fd_sc_hd__dfrtp_1
*CAP
1 *1233:A0 0.00010026
2 *1091:A_N 0.000122769
3 *1094:B_N 0.000182409
4 *1329:Q 3.23642e-05
5 *363:12 0.000422623
6 *363:8 0.000250069
7 *1233:S *1233:A0 0.000119313
8 *1233:S *363:8 5.67058e-05
9 *126:115 *363:12 0
10 *206:10 *1091:A_N 7.03359e-05
11 *206:10 *1233:A0 2.64616e-05
12 *206:10 *363:8 1.76557e-05
13 *206:10 *363:12 3.73876e-05
14 *244:8 *1094:B_N 3.71369e-05
15 *244:10 *1091:A_N 9.11368e-05
16 *244:10 *363:12 0.000185351
17 *244:36 *1091:A_N 0.000127272
18 *295:29 *1094:B_N 0.000268074
19 *362:27 *1091:A_N 5.3304e-05
*RES
1 *1329:Q *363:8 24.1186 
2 *363:8 *363:12 17.61 
3 *363:12 *1094:B_N 42.4329 
4 *363:12 *1091:A_N 41.5836 
5 *363:8 *1233:A0 25.5271 
*END

*D_NET *364 0.00400857
*CONN
*I *1108:A2 I *D sky130_fd_sc_hd__a2111o_2
*I *1105:A2 I *D sky130_fd_sc_hd__o21ai_1
*I *1223:A0 I *D sky130_fd_sc_hd__mux2_1
*I *1324:Q O *D sky130_fd_sc_hd__dfrtp_1
*CAP
1 *1108:A2 0
2 *1105:A2 0
3 *1223:A0 0.000375622
4 *1324:Q 7.73222e-05
5 *364:33 0.000257983
6 *364:23 0.000842567
7 *364:8 0.00103753
8 *364:23 *365:8 2.64616e-05
9 *1108:C1 *364:23 4.9662e-05
10 *1223:A1 *1223:A0 5.79559e-05
11 *1223:S *1223:A0 0.000102389
12 *1226:A *364:23 2.64616e-05
13 *1325:RESET_B *364:23 2.8521e-05
14 *3:17 *364:8 9.85586e-06
15 *98:39 *364:33 1.79366e-05
16 *99:51 *364:33 0.000138718
17 *102:38 *364:33 0.000138718
18 *121:10 *364:33 0.000185152
19 *202:8 *364:8 0.000141572
20 *202:8 *364:23 0.000167443
21 *256:234 *364:23 0.000157868
22 *256:451 *364:23 0.000168831
23 *307:21 *364:23 0
*RES
1 *1324:Q *364:8 39.9057 
2 *364:8 *1223:A0 45.2914 
3 *364:8 *364:23 28.1121 
4 *364:23 *364:33 35.8829 
5 *364:33 *1105:A2 23 
6 *364:23 *1108:A2 23 
*END

*D_NET *365 0.00210705
*CONN
*I *1106:B I *D sky130_fd_sc_hd__xor2_1
*I *1225:A0 I *D sky130_fd_sc_hd__mux2_1
*I *1325:Q O *D sky130_fd_sc_hd__dfrtp_1
*CAP
1 *1106:B 0.00022365
2 *1225:A0 0.000424787
3 *1325:Q 5.43738e-05
4 *365:8 0.000702811
5 *99:51 *1225:A0 0
6 *239:18 *1225:A0 8.0934e-05
7 *239:50 *1106:B 0.000298638
8 *239:50 *1225:A0 0.000102629
9 *256:246 *1106:B 0.000192764
10 *307:21 *1106:B 0
11 *307:21 *1225:A0 0
12 *364:23 *365:8 2.64616e-05
*RES
1 *1325:Q *365:8 38.6214 
2 *365:8 *1225:A0 45.0221 
3 *365:8 *1106:B 43.5929 
*END

*D_NET *366 0.000880468
*CONN
*I *1107:B I *D sky130_fd_sc_hd__xor2_1
*I *1378:A I *D sky130_fd_sc_hd__dlygate4sd3_1
*I *1326:Q O *D sky130_fd_sc_hd__dfrtp_1
*CAP
1 *1107:B 0.000112803
2 *1378:A 0
3 *1326:Q 0
4 *366:12 0.000283991
5 *366:4 0.000396794
6 *1326:RESET_B *366:12 4.83893e-05
7 *256:256 *366:12 3.84905e-05
*RES
1 *1326:Q *366:4 23 
2 *366:4 *366:12 34.4329 
3 *366:12 *1378:A 23 
4 *366:4 *1107:B 25.2993 
*END

*D_NET *367 0.00363003
*CONN
*I *1116:A2 I *D sky130_fd_sc_hd__a2111oi_1
*I *1101:A2 I *D sky130_fd_sc_hd__o21ai_1
*I *1104:A2 I *D sky130_fd_sc_hd__a2111o_1
*I *1217:A0 I *D sky130_fd_sc_hd__mux2_1
*I *1321:Q O *D sky130_fd_sc_hd__dfrtp_1
*CAP
1 *1116:A2 8.16787e-05
2 *1101:A2 0
3 *1104:A2 2.30556e-05
4 *1217:A0 0
5 *1321:Q 0
6 *367:38 0.000175949
7 *367:32 0.000369847
8 *367:23 0.000456324
9 *367:14 0.000293884
10 *367:4 0.000614933
11 *367:14 *368:23 7.81254e-05
12 *1116:A1 *1116:A2 0.000102971
13 *1116:C1 *1116:A2 0.000174169
14 *1116:C1 *367:32 0.000186856
15 *1217:S *367:14 0.000102971
16 *98:98 *367:23 0.000144501
17 *98:98 *367:32 5.79559e-05
18 *98:105 *1116:A2 0.000274654
19 *98:105 *367:32 0.000301823
20 *99:43 *367:14 5.0518e-05
21 *120:10 *367:38 0.000109343
22 *131:16 *367:38 1.142e-05
23 *246:20 *367:23 1.9054e-05
*RES
1 *1321:Q *367:4 23 
2 *367:4 *367:14 35.655 
3 *367:14 *1217:A0 23 
4 *367:4 *367:23 5.88286 
5 *367:23 *1104:A2 23.4971 
6 *367:23 *367:32 3.95643 
7 *367:32 *367:38 32.9621 
8 *367:38 *1101:A2 23 
9 *367:32 *1116:A2 26.48 
*END

*D_NET *368 0.00375282
*CONN
*I *1102:B I *D sky130_fd_sc_hd__xor2_1
*I *1219:A0 I *D sky130_fd_sc_hd__mux2_1
*I *1322:Q O *D sky130_fd_sc_hd__dfrtp_1
*CAP
1 *1102:B 0
2 *1219:A0 0.000783298
3 *1322:Q 0
4 *368:23 0.000530535
5 *368:4 0.00131383
6 *1217:A1 *368:23 0.000363448
7 *1217:S *368:23 2.50118e-05
8 *1322:RESET_B *1219:A0 0.000135338
9 *126:203 *368:23 0
10 *243:49 *1219:A0 0.000232187
11 *243:62 *1219:A0 0.000188927
12 *246:26 *368:23 0
13 *304:18 *1219:A0 8.85165e-05
14 *304:18 *368:23 1.35999e-05
15 *367:14 *368:23 7.81254e-05
*RES
1 *1322:Q *368:4 23 
2 *368:4 *1219:A0 34.5793 
3 *368:4 *368:23 40.7714 
4 *368:23 *1102:B 23 
*END

*D_NET *369 0.00103447
*CONN
*I *1103:B I *D sky130_fd_sc_hd__xor2_1
*I *1221:A0 I *D sky130_fd_sc_hd__mux2_1
*I *1323:Q O *D sky130_fd_sc_hd__dfrtp_1
*CAP
1 *1103:B 0
2 *1221:A0 0.000379856
3 *1323:Q 9.2415e-05
4 *369:12 0.000401867
5 *369:8 0.000114426
6 *1087:A *369:8 4.59027e-05
7 *256:273 *369:8 0
*RES
1 *1323:Q *369:8 39.9057 
2 *369:8 *369:12 15.6214 
3 *369:12 *1221:A0 29.8357 
4 *369:12 *1103:B 23 
*END

*D_NET *370 0.0022984
*CONN
*I *1080:A I *D sky130_fd_sc_hd__inv_2
*I *1088:A2 I *D sky130_fd_sc_hd__a221o_1
*I *1211:A0 I *D sky130_fd_sc_hd__mux2_1
*I *1318:Q O *D sky130_fd_sc_hd__dfrtp_1
*CAP
1 *1080:A 0
2 *1088:A2 0.000166826
3 *1211:A0 0.000160455
4 *1318:Q 0.000137263
5 *370:25 0.000482164
6 *370:12 0.000567814
7 *370:8 0.000229284
8 *1211:A1 *1211:A0 5.67058e-05
9 *1211:S *1211:A0 5.50106e-05
10 *126:233 *370:8 0
11 *126:248 *1211:A0 0.000215671
12 *126:248 *370:12 0.000227208
13 *126:248 *370:25 0
14 *256:311 *370:25 0
*RES
1 *1318:Q *370:8 40.2579 
2 *370:8 *370:12 17.5271 
3 *370:12 *1211:A0 26.9564 
4 *370:12 *370:25 35.7793 
5 *370:25 *1088:A2 25.7654 
6 *370:25 *1080:A 23 
*END

*D_NET *371 0.00353982
*CONN
*I *1213:A0 I *D sky130_fd_sc_hd__mux2_1
*I *1084:B I *D sky130_fd_sc_hd__or2_1
*I *1085:B I *D sky130_fd_sc_hd__nand2_1
*I *1319:Q O *D sky130_fd_sc_hd__dfrtp_1
*CAP
1 *1213:A0 6.11921e-05
2 *1084:B 6.70518e-05
3 *1085:B 0.000220929
4 *1319:Q 0.000407519
5 *371:12 0.000753535
6 *371:10 0.000934265
7 *371:12 *1087:B 0
8 *1319:RESET_B *371:10 1.41806e-05
9 *99:33 *1085:B 0.000144501
10 *99:41 *1085:B 9.79925e-05
11 *99:107 *1084:B 1.32314e-05
12 *99:107 *1085:B 3.98887e-05
13 *119:12 *1085:B 0.000141975
14 *119:12 *371:12 2.51382e-05
15 *126:233 *1213:A0 7.65857e-05
16 *195:10 *371:10 1.00084e-05
17 *195:10 *371:12 0.00016401
18 *196:10 *371:10 3.54728e-05
19 *246:68 *1213:A0 0.000233359
20 *256:301 *371:10 9.89824e-05
*RES
1 *1319:Q *371:10 43.8621 
2 *371:10 *371:12 8.94857 
3 *371:12 *1085:B 43.2821 
4 *371:12 *1084:B 39.0979 
5 *371:10 *1213:A0 40.5271 
*END

*D_NET *372 0.00251786
*CONN
*I *1215:A0 I *D sky130_fd_sc_hd__mux2_1
*I *1087:B I *D sky130_fd_sc_hd__xor2_1
*I *1320:Q O *D sky130_fd_sc_hd__dfrtp_1
*CAP
1 *1215:A0 0.000110231
2 *1087:B 0.000368928
3 *1320:Q 0.000241175
4 *372:10 0.000720335
5 *1087:A *1087:B 1.83564e-05
6 *1319:RESET_B *372:10 6.89359e-06
7 *126:216 *1215:A0 9.91548e-05
8 *126:223 *1215:A0 0.000502646
9 *246:58 *372:10 1.24298e-05
10 *246:68 *1215:A0 0.000100477
11 *246:68 *372:10 4.73379e-05
12 *305:10 *372:10 1.94812e-05
13 *305:26 *1215:A0 0.000270415
14 *371:12 *1087:B 0
*RES
1 *1320:Q *372:10 41.48 
2 *372:10 *1087:B 44.1314 
3 *372:10 *1215:A0 44.3386 
*END

*D_NET *373 0.00294472
*CONN
*I *1112:B I *D sky130_fd_sc_hd__and3b_1
*I *1256:A I *D sky130_fd_sc_hd__nand2_2
*I *1114:A I *D sky130_fd_sc_hd__inv_2
*I *1279:A1 I *D sky130_fd_sc_hd__a21oi_1
*I *1343:Q O *D sky130_fd_sc_hd__dfrtp_1
*CAP
1 *1112:B 0
2 *1256:A 0.000346218
3 *1114:A 0.000352515
4 *1279:A1 0
5 *1343:Q 7.41458e-05
6 *373:25 0.000747252
7 *373:21 0.000169108
8 *373:10 0.000120588
9 *373:8 7.41458e-05
10 *1112:A_N *373:21 0
11 *1125:B1 *1114:A 1.24376e-05
12 *1279:A2 *373:8 1.12863e-05
13 *97:30 *373:21 0.000103405
14 *97:30 *373:25 9.03964e-06
15 *126:64 *1256:A 0.000229599
16 *127:34 *1114:A 4.21252e-05
17 *127:47 *1114:A 0.000137013
18 *127:60 *1114:A 7.38842e-05
19 *127:60 *1256:A 0.000150056
20 *128:12 *373:21 9.88259e-05
21 *130:40 *1114:A 0
22 *130:40 *373:8 0.000138719
23 *216:12 *1114:A 5.43544e-05
*RES
1 *1343:Q *373:8 39.9057 
2 *373:8 *373:10 15 
3 *373:10 *1279:A1 23 
4 *373:10 *373:21 3.39714 
5 *373:21 *373:25 15.6214 
6 *373:25 *1114:A 45.9336 
7 *373:25 *1256:A 45.395 
8 *373:21 *1112:B 23 
*END

*D_NET *374 0.00175815
*CONN
*I *1099:A I *D sky130_fd_sc_hd__and4_1
*I *1121:A1 I *D sky130_fd_sc_hd__a22oi_1
*I *1404:A I *D sky130_fd_sc_hd__dlygate4sd3_1
*I *1344:Q O *D sky130_fd_sc_hd__dfrtp_1
*CAP
1 *1099:A 2.34823e-05
2 *1121:A1 0.000244068
3 *1404:A 0.000142528
4 *1344:Q 4.22111e-05
5 *374:12 0.000622443
6 *374:6 0.000301541
7 *1121:A1 *375:12 4.66036e-05
8 *1099:B *374:12 3.22879e-05
9 *115:10 *1121:A1 0
10 *115:10 *374:12 0
11 *134:12 *1121:A1 0
12 *134:12 *374:12 0
13 *134:24 *1121:A1 0.000273614
14 *245:8 *1404:A 2.93747e-05
*RES
1 *1344:Q *374:6 23.6214 
2 *374:6 *374:12 18.8321 
3 *374:12 *1404:A 40.5271 
4 *374:12 *1121:A1 43.7793 
5 *374:6 *1099:A 23.4971 
*END

*D_NET *375 0.00394786
*CONN
*I *1405:A I *D sky130_fd_sc_hd__dlygate4sd3_1
*I *1121:B2 I *D sky130_fd_sc_hd__a22oi_1
*I *1095:B1 I *D sky130_fd_sc_hd__o2111a_1
*I *1345:Q O *D sky130_fd_sc_hd__dfrtp_1
*CAP
1 *1405:A 0
2 *1121:B2 0
3 *1095:B1 0.000646513
4 *1345:Q 0
5 *375:44 0.000332131
6 *375:12 0.00125483
7 *375:4 0.000940451
8 *1095:A1 *1095:B1 3.88825e-05
9 *1120:A_N *1095:B1 1.41129e-05
10 *1120:B *1095:B1 8.82053e-06
11 *1121:A1 *375:12 4.66036e-05
12 *1248:A1 *1095:B1 5.3304e-05
13 *1269:A1 *375:12 9.84794e-05
14 *1269:A1 *375:44 0
15 *1270:A *375:12 2.30292e-05
16 *1270:A *375:44 3.83778e-05
17 *1270:B *375:12 1.39431e-05
18 *1271:B1 *375:44 6.17437e-06
19 *1272:A *375:44 6.70017e-05
20 *102:49 *1095:B1 1.83327e-05
21 *111:10 *1095:B1 0.000119546
22 *115:10 *375:12 2.63947e-05
23 *115:27 *375:12 5.74473e-05
24 *115:40 *375:12 3.47781e-05
25 *134:24 *375:12 3.6485e-05
26 *135:6 *1095:B1 5.3304e-05
27 *230:8 *375:44 1.89178e-05
*RES
1 *1345:Q *375:4 23 
2 *375:4 *375:12 39.0729 
3 *375:12 *1095:B1 33.3779 
4 *375:12 *1121:B2 23 
5 *375:4 *375:44 35.0543 
6 *375:44 *1405:A 23 
*END

*D_NET *376 0.00227637
*CONN
*I *1273:B1 I *D sky130_fd_sc_hd__o31a_1
*I *1123:B1 I *D sky130_fd_sc_hd__o21ai_1
*I *1105:B1 I *D sky130_fd_sc_hd__o21ai_1
*I *1346:Q O *D sky130_fd_sc_hd__dfrtp_1
*CAP
1 *1273:B1 0.000345836
2 *1123:B1 0.000149011
3 *1105:B1 5.41226e-05
4 *1346:Q 0
5 *376:10 0.000626133
6 *376:4 0.000768836
7 *1247:A *1123:B1 0
8 *1273:A1 *1273:B1 2.64616e-05
9 *1273:A2 *1273:B1 1.4267e-05
10 *1346:RESET_B *1273:B1 4.21048e-05
11 *1346:RESET_B *376:10 0.00014006
12 *98:18 *376:10 0
13 *98:39 *1105:B1 3.42398e-05
14 *98:39 *1123:B1 2.38163e-05
15 *98:39 *376:10 1.85903e-05
16 *116:16 *1273:B1 5.91154e-06
17 *124:65 *1273:B1 2.69767e-05
18 *126:48 *376:10 0
*RES
1 *1346:Q *376:4 23 
2 *376:4 *376:10 21.2143 
3 *376:10 *1105:B1 39.0979 
4 *376:10 *1123:B1 40.0507 
5 *376:4 *1273:B1 28.2977 
*END

*D_NET *377 0.0035831
*CONN
*I *1117:A I *D sky130_fd_sc_hd__inv_2
*I *1101:B1 I *D sky130_fd_sc_hd__o21ai_1
*I *1276:B1 I *D sky130_fd_sc_hd__o31a_1
*I *1347:Q O *D sky130_fd_sc_hd__dfrtp_1
*CAP
1 *1117:A 0
2 *1101:B1 0
3 *1276:B1 0.000310233
4 *1347:Q 7.5158e-05
5 *377:37 0.000477024
6 *377:25 0.000590464
7 *377:8 0.000498831
8 *1276:A2 *1276:B1 5.12055e-06
9 *1276:A3 *1276:B1 2.99938e-05
10 *97:30 *1276:B1 6.07447e-05
11 *97:36 *1276:B1 0.00013274
12 *97:36 *377:25 0
13 *97:36 *377:37 0.000217816
14 *98:72 *377:37 0.000360539
15 *117:25 *377:37 7.90354e-05
16 *120:37 *377:8 4.63956e-05
17 *124:38 *1276:B1 0.000135557
18 *126:64 *377:37 0.000185428
19 *130:12 *1276:B1 5.50049e-05
20 *132:10 *1276:B1 6.68107e-05
21 *132:10 *377:25 2.11887e-05
22 *137:37 *1276:B1 1.39317e-05
23 *138:24 *1276:B1 0.000221084
24 *139:27 *1276:B1 0
25 *139:27 *377:25 0
26 *139:27 *377:37 0
*RES
1 *1347:Q *377:8 39.0979 
2 *377:8 *1276:B1 45.6436 
3 *377:8 *377:25 16.9057 
4 *377:25 *377:37 42.2836 
5 *377:37 *1101:B1 23 
6 *377:25 *1117:A 23 
*END

*D_NET *378 0.000494126
*CONN
*I *1081:A I *D sky130_fd_sc_hd__inv_2
*I *1348:Q O *D sky130_fd_sc_hd__dfrtp_1
*CAP
1 *1081:A 0
2 *1348:Q 0.000162446
3 *378:10 0.000162446
4 *1426:A *378:10 8.51329e-05
5 *355:10 *378:10 8.41012e-05
*RES
1 *1348:Q *378:10 41.3557 
2 *378:10 *1081:A 38 
*END
