*SPEF "ieee 1481-1999"
*DESIGN "top"
*DATE "11:11:11 Fri 11 11, 1111"
*VENDOR "OpenRCX"
*PROGRAM "Parallel Extraction"
*VERSION "1.0"
*DESIGN_FLOW "NAME_SCOPE LOCAL" "PIN_CAP NONE"
*DIVIDER /
*DELIMITER :
*BUS_DELIMITER []
*T_UNIT 1 NS
*C_UNIT 1 PF
*R_UNIT 1 OHM
*L_UNIT 1 HENRY

*NAME_MAP
*3 clk
*4 i_valid
*5 i_value0[0]
*6 i_value0[1]
*7 i_value0[2]
*8 i_value1[0]
*9 i_value1[1]
*10 i_value1[2]
*11 i_value2[0]
*12 i_value2[1]
*13 i_value2[2]
*14 i_value3[0]
*15 i_value3[1]
*16 i_value3[2]
*17 i_value4[0]
*18 i_value4[1]
*19 i_value4[2]
*20 o_bucket[0]
*21 o_bucket[1]
*22 o_bucket[2]
*23 o_index[0]
*24 o_index[1]
*25 o_index[2]
*26 o_valid
*27 rst_n
*28 _000_
*29 _001_
*30 _002_
*31 _003_
*32 _004_
*33 _005_
*34 _006_
*35 _007_
*36 _008_
*37 _009_
*38 _010_
*39 _011_
*40 _012_
*41 _013_
*42 _014_
*43 _015_
*44 _016_
*45 _017_
*46 _018_
*47 _019_
*48 _020_
*49 _021_
*50 _022_
*51 _023_
*52 _024_
*53 _025_
*54 _026_
*55 _027_
*56 _028_
*57 _029_
*58 _030_
*59 _031_
*60 _032_
*61 _033_
*62 _034_
*63 _035_
*64 _036_
*65 _037_
*66 _038_
*67 _039_
*68 _040_
*69 _041_
*70 _042_
*71 _043_
*72 _044_
*73 _045_
*74 _046_
*75 _047_
*76 _048_
*77 _049_
*78 _050_
*79 _051_
*80 _052_
*81 _053_
*82 _054_
*83 _055_
*84 _056_
*85 _057_
*86 _058_
*87 _059_
*88 _060_
*89 _061_
*90 _062_
*91 _063_
*92 _064_
*93 _065_
*94 _066_
*95 _067_
*96 _068_
*97 _069_
*98 _070_
*99 _071_
*100 _072_
*101 _073_
*102 _074_
*103 _075_
*104 _076_
*105 _077_
*106 _078_
*107 _079_
*108 _080_
*109 _081_
*110 _082_
*111 _083_
*112 _084_
*113 _085_
*114 _086_
*115 _087_
*116 _088_
*117 _089_
*118 _090_
*119 _091_
*120 _092_
*121 _093_
*122 _094_
*123 _095_
*124 _096_
*125 _097_
*126 _098_
*127 _099_
*128 _100_
*129 _101_
*130 _102_
*131 _103_
*132 _104_
*133 _105_
*134 _106_
*135 _107_
*136 _108_
*137 _109_
*138 _110_
*139 _111_
*140 _112_
*141 _113_
*142 _114_
*143 _115_
*144 _116_
*145 _117_
*146 _118_
*147 _119_
*148 _120_
*149 _121_
*150 _122_
*151 _123_
*152 _124_
*153 _125_
*154 _126_
*155 _127_
*156 _128_
*157 _129_
*158 _130_
*159 _131_
*160 _132_
*161 _133_
*162 _134_
*163 _135_
*164 _136_
*165 _137_
*166 _138_
*167 _139_
*168 _140_
*169 _141_
*170 _142_
*171 _143_
*172 _144_
*173 _145_
*174 _146_
*175 _147_
*176 _148_
*177 _149_
*178 _150_
*179 _151_
*180 _152_
*181 _153_
*182 _154_
*183 _155_
*184 _156_
*185 _157_
*186 _158_
*187 _159_
*188 _160_
*189 _161_
*190 _162_
*191 _163_
*192 _164_
*193 _165_
*194 _166_
*195 _167_
*196 _168_
*197 _169_
*198 _170_
*199 _171_
*200 _172_
*201 _173_
*202 _174_
*203 _175_
*204 _176_
*205 _177_
*206 _178_
*207 _179_
*208 _180_
*209 _181_
*210 _182_
*211 _183_
*212 _184_
*213 _185_
*214 _186_
*215 _187_
*216 _188_
*217 _189_
*218 _190_
*219 _191_
*220 _192_
*221 _193_
*222 _194_
*223 _195_
*224 _196_
*225 _197_
*226 _198_
*227 _199_
*228 _200_
*229 _201_
*230 _202_
*231 _203_
*232 _204_
*233 _205_
*234 _206_
*235 _207_
*236 _208_
*237 _209_
*238 _210_
*239 clknet_0_clk
*240 clknet_3_0__leaf_clk
*241 clknet_3_1__leaf_clk
*242 clknet_3_2__leaf_clk
*243 clknet_3_3__leaf_clk
*244 clknet_3_4__leaf_clk
*245 clknet_3_5__leaf_clk
*246 clknet_3_6__leaf_clk
*247 clknet_3_7__leaf_clk
*248 net1
*249 net10
*250 net11
*251 net12
*252 net13
*253 net14
*254 net15
*255 net16
*256 net17
*257 net18
*258 net19
*259 net2
*260 net20
*261 net21
*262 net22
*263 net23
*264 net24
*265 net25
*266 net26
*267 net27
*268 net28
*269 net29
*270 net3
*271 net30
*272 net31
*273 net32
*274 net33
*275 net34
*276 net35
*277 net36
*278 net37
*279 net38
*280 net39
*281 net4
*282 net40
*283 net41
*284 net42
*285 net43
*286 net44
*287 net45
*288 net46
*289 net47
*290 net48
*291 net49
*292 net5
*293 net50
*294 net51
*295 net52
*296 net53
*297 net54
*298 net55
*299 net56
*300 net57
*301 net58
*302 net59
*303 net6
*304 net60
*305 net61
*306 net62
*307 net63
*308 net64
*309 net65
*310 net66
*311 net67
*312 net68
*313 net69
*314 net7
*315 net70
*316 net71
*317 net72
*318 net73
*319 net8
*320 net9
*321 u_am0\.b_i\[0\]
*322 u_am0\.b_i\[1\]
*323 u_am0\.b_i\[2\]
*324 u_am0\.i_index\[0\]
*325 u_am0\.i_index\[1\]
*326 u_am0\.i_index\[2\]
*327 u_am0\.max\[0\]
*328 u_am0\.max\[1\]
*329 u_am0\.max\[2\]
*330 u_am1\.b_i\[0\]
*331 u_am1\.b_i\[1\]
*332 u_am1\.b_i\[2\]
*333 u_am1\.max\[0\]
*334 u_am1\.max\[1\]
*335 u_am1\.max\[2\]
*336 u_am2\.b_i\[0\]
*337 u_am2\.b_i\[1\]
*338 u_am2\.b_i\[2\]
*339 u_am2\.max\[0\]
*340 u_am2\.max\[1\]
*341 u_am2\.max\[2\]
*342 u_am3\.b_i\[0\]
*343 u_am3\.b_i\[1\]
*344 u_am3\.b_i\[2\]
*345 u_am3\.max\[0\]
*346 u_am3\.max\[1\]
*347 u_am3\.max\[2\]
*348 u_am4\.b_i\[0\]
*349 u_am4\.b_i\[1\]
*350 u_am4\.b_i\[2\]
*351 u_am4\.max\[0\]
*352 u_am4\.max\[1\]
*353 u_am4\.max\[2\]
*354 u_control\.o_start_sort
*355 u_sort\.bucket_counter\[0\]
*356 u_sort\.bucket_counter\[1\]
*357 u_sort\.bucket_counter\[2\]
*358 u_sort\.bucket_reg\[0\]\[0\]
*359 u_sort\.bucket_reg\[0\]\[1\]
*360 u_sort\.bucket_reg\[0\]\[2\]
*361 u_sort\.bucket_reg\[1\]\[0\]
*362 u_sort\.bucket_reg\[1\]\[1\]
*363 u_sort\.bucket_reg\[1\]\[2\]
*364 u_sort\.bucket_reg\[2\]\[0\]
*365 u_sort\.bucket_reg\[2\]\[1\]
*366 u_sort\.bucket_reg\[2\]\[2\]
*367 u_sort\.bucket_reg\[3\]\[0\]
*368 u_sort\.bucket_reg\[3\]\[1\]
*369 u_sort\.bucket_reg\[3\]\[2\]
*370 u_sort\.bucket_reg\[4\]\[0\]
*371 u_sort\.bucket_reg\[4\]\[1\]
*372 u_sort\.bucket_reg\[4\]\[2\]
*373 u_sort\.busy
*374 u_sort\.valid_reg\[0\]
*375 u_sort\.valid_reg\[1\]
*376 u_sort\.valid_reg\[2\]
*377 u_sort\.valid_reg\[3\]
*378 u_sort\.valid_reg\[4\]
*379 FILLER_0_0_102
*380 FILLER_0_0_110
*381 FILLER_0_0_119
*382 FILLER_0_0_123
*383 FILLER_0_0_138
*384 FILLER_0_0_144
*385 FILLER_0_0_156
*386 FILLER_0_0_160
*387 FILLER_0_0_169
*388 FILLER_0_0_23
*389 FILLER_0_0_27
*390 FILLER_0_0_29
*391 FILLER_0_0_45
*392 FILLER_0_0_6
*393 FILLER_0_0_60
*394 FILLER_0_0_64
*395 FILLER_0_0_73
*396 FILLER_0_0_82
*397 FILLER_0_0_85
*398 FILLER_0_0_90
*399 FILLER_0_10_102
*400 FILLER_0_10_110
*401 FILLER_0_10_119
*402 FILLER_0_10_131
*403 FILLER_0_10_139
*404 FILLER_0_10_141
*405 FILLER_0_10_145
*406 FILLER_0_10_154
*407 FILLER_0_10_166
*408 FILLER_0_10_174
*409 FILLER_0_10_23
*410 FILLER_0_10_70
*411 FILLER_0_10_82
*412 FILLER_0_11_110
*413 FILLER_0_11_113
*414 FILLER_0_11_121
*415 FILLER_0_11_126
*416 FILLER_0_11_134
*417 FILLER_0_11_15
*418 FILLER_0_11_162
*419 FILLER_0_11_169
*420 FILLER_0_11_3
*421 FILLER_0_11_48
*422 FILLER_0_11_57
*423 FILLER_0_11_69
*424 FILLER_0_11_77
*425 FILLER_0_11_98
*426 FILLER_0_12_134
*427 FILLER_0_12_139
*428 FILLER_0_12_15
*429 FILLER_0_12_161
*430 FILLER_0_12_173
*431 FILLER_0_12_27
*432 FILLER_0_12_29
*433 FILLER_0_12_3
*434 FILLER_0_12_71
*435 FILLER_0_12_82
*436 FILLER_0_12_85
*437 FILLER_0_12_91
*438 FILLER_0_12_97
*439 FILLER_0_13_111
*440 FILLER_0_13_130
*441 FILLER_0_13_138
*442 FILLER_0_13_15
*443 FILLER_0_13_159
*444 FILLER_0_13_167
*445 FILLER_0_13_169
*446 FILLER_0_13_19
*447 FILLER_0_13_3
*448 FILLER_0_13_40
*449 FILLER_0_13_46
*450 FILLER_0_13_82
*451 FILLER_0_13_99
*452 FILLER_0_14_100
*453 FILLER_0_14_134
*454 FILLER_0_14_141
*455 FILLER_0_14_145
*456 FILLER_0_14_157
*457 FILLER_0_14_38
*458 FILLER_0_14_50
*459 FILLER_0_14_6
*460 FILLER_0_14_62
*461 FILLER_0_14_69
*462 FILLER_0_14_85
*463 FILLER_0_15_105
*464 FILLER_0_15_136
*465 FILLER_0_15_148
*466 FILLER_0_15_15
*467 FILLER_0_15_160
*468 FILLER_0_15_169
*469 FILLER_0_15_19
*470 FILLER_0_15_3
*471 FILLER_0_15_55
*472 FILLER_0_15_62
*473 FILLER_0_15_72
*474 FILLER_0_16_100
*475 FILLER_0_16_112
*476 FILLER_0_16_124
*477 FILLER_0_16_136
*478 FILLER_0_16_141
*479 FILLER_0_16_15
*480 FILLER_0_16_165
*481 FILLER_0_16_173
*482 FILLER_0_16_23
*483 FILLER_0_16_27
*484 FILLER_0_16_29
*485 FILLER_0_16_3
*486 FILLER_0_16_41
*487 FILLER_0_16_49
*488 FILLER_0_16_74
*489 FILLER_0_16_82
*490 FILLER_0_17_113
*491 FILLER_0_17_125
*492 FILLER_0_17_158
*493 FILLER_0_17_167
*494 FILLER_0_17_169
*495 FILLER_0_17_20
*496 FILLER_0_17_3
*497 FILLER_0_17_32
*498 FILLER_0_17_44
*499 FILLER_0_17_60
*500 FILLER_0_17_7
*501 FILLER_0_17_72
*502 FILLER_0_17_84
*503 FILLER_0_18_101
*504 FILLER_0_18_120
*505 FILLER_0_18_128
*506 FILLER_0_18_138
*507 FILLER_0_18_156
*508 FILLER_0_18_165
*509 FILLER_0_18_23
*510 FILLER_0_18_27
*511 FILLER_0_18_60
*512 FILLER_0_18_68
*513 FILLER_0_18_79
*514 FILLER_0_18_83
*515 FILLER_0_18_85
*516 FILLER_0_18_93
*517 FILLER_0_19_169
*518 FILLER_0_19_3
*519 FILLER_0_19_57
*520 FILLER_0_19_69
*521 FILLER_0_19_7
*522 FILLER_0_19_77
*523 FILLER_0_19_81
*524 FILLER_0_1_133
*525 FILLER_0_1_154
*526 FILLER_0_1_166
*527 FILLER_0_1_169
*528 FILLER_0_1_37
*529 FILLER_0_1_54
*530 FILLER_0_1_66
*531 FILLER_0_20_121
*532 FILLER_0_20_133
*533 FILLER_0_20_139
*534 FILLER_0_20_17
*535 FILLER_0_20_170
*536 FILLER_0_20_21
*537 FILLER_0_20_27
*538 FILLER_0_20_38
*539 FILLER_0_20_44
*540 FILLER_0_20_83
*541 FILLER_0_20_89
*542 FILLER_0_20_9
*543 FILLER_0_20_99
*544 FILLER_0_21_103
*545 FILLER_0_21_11
*546 FILLER_0_21_113
*547 FILLER_0_21_118
*548 FILLER_0_21_129
*549 FILLER_0_21_150
*550 FILLER_0_21_164
*551 FILLER_0_21_169
*552 FILLER_0_21_3
*553 FILLER_0_21_41
*554 FILLER_0_21_51
*555 FILLER_0_21_55
*556 FILLER_0_21_63
*557 FILLER_0_21_69
*558 FILLER_0_21_86
*559 FILLER_0_21_90
*560 FILLER_0_21_95
*561 FILLER_0_22_128
*562 FILLER_0_22_136
*563 FILLER_0_22_15
*564 FILLER_0_22_150
*565 FILLER_0_22_161
*566 FILLER_0_22_173
*567 FILLER_0_22_23
*568 FILLER_0_22_3
*569 FILLER_0_22_49
*570 FILLER_0_22_56
*571 FILLER_0_22_85
*572 FILLER_0_23_102
*573 FILLER_0_23_110
*574 FILLER_0_23_113
*575 FILLER_0_23_122
*576 FILLER_0_23_14
*577 FILLER_0_23_161
*578 FILLER_0_23_167
*579 FILLER_0_23_169
*580 FILLER_0_23_24
*581 FILLER_0_23_3
*582 FILLER_0_23_65
*583 FILLER_0_23_77
*584 FILLER_0_23_86
*585 FILLER_0_23_98
*586 FILLER_0_24_105
*587 FILLER_0_24_133
*588 FILLER_0_24_139
*589 FILLER_0_24_150
*590 FILLER_0_24_25
*591 FILLER_0_24_3
*592 FILLER_0_24_37
*593 FILLER_0_24_70
*594 FILLER_0_24_82
*595 FILLER_0_24_85
*596 FILLER_0_24_93
*597 FILLER_0_25_106
*598 FILLER_0_25_113
*599 FILLER_0_25_121
*600 FILLER_0_25_129
*601 FILLER_0_25_167
*602 FILLER_0_25_169
*603 FILLER_0_25_21
*604 FILLER_0_25_33
*605 FILLER_0_25_43
*606 FILLER_0_25_48
*607 FILLER_0_25_52
*608 FILLER_0_25_77
*609 FILLER_0_25_9
*610 FILLER_0_26_118
*611 FILLER_0_26_130
*612 FILLER_0_26_134
*613 FILLER_0_26_138
*614 FILLER_0_26_15
*615 FILLER_0_26_152
*616 FILLER_0_26_164
*617 FILLER_0_26_23
*618 FILLER_0_26_3
*619 FILLER_0_26_57
*620 FILLER_0_26_69
*621 FILLER_0_26_81
*622 FILLER_0_26_85
*623 FILLER_0_26_97
*624 FILLER_0_27_113
*625 FILLER_0_27_121
*626 FILLER_0_27_127
*627 FILLER_0_27_141
*628 FILLER_0_27_15
*629 FILLER_0_27_164
*630 FILLER_0_27_169
*631 FILLER_0_27_27
*632 FILLER_0_27_3
*633 FILLER_0_27_31
*634 FILLER_0_27_52
*635 FILLER_0_27_66
*636 FILLER_0_27_78
*637 FILLER_0_27_82
*638 FILLER_0_28_105
*639 FILLER_0_28_137
*640 FILLER_0_28_141
*641 FILLER_0_28_147
*642 FILLER_0_28_168
*643 FILLER_0_28_174
*644 FILLER_0_28_24
*645 FILLER_0_28_3
*646 FILLER_0_29_100
*647 FILLER_0_29_107
*648 FILLER_0_29_111
*649 FILLER_0_29_113
*650 FILLER_0_29_12
*651 FILLER_0_29_125
*652 FILLER_0_29_133
*653 FILLER_0_29_139
*654 FILLER_0_29_149
*655 FILLER_0_29_156
*656 FILLER_0_29_24
*657 FILLER_0_29_29
*658 FILLER_0_29_37
*659 FILLER_0_29_41
*660 FILLER_0_29_51
*661 FILLER_0_29_55
*662 FILLER_0_29_64
*663 FILLER_0_29_82
*664 FILLER_0_29_85
*665 FILLER_0_29_91
*666 FILLER_0_2_106
*667 FILLER_0_2_114
*668 FILLER_0_2_120
*669 FILLER_0_2_15
*670 FILLER_0_2_161
*671 FILLER_0_2_173
*672 FILLER_0_2_23
*673 FILLER_0_2_3
*674 FILLER_0_2_69
*675 FILLER_0_2_79
*676 FILLER_0_2_95
*677 FILLER_0_3_141
*678 FILLER_0_3_15
*679 FILLER_0_3_151
*680 FILLER_0_3_161
*681 FILLER_0_3_167
*682 FILLER_0_3_169
*683 FILLER_0_3_27
*684 FILLER_0_3_3
*685 FILLER_0_3_42
*686 FILLER_0_3_54
*687 FILLER_0_3_57
*688 FILLER_0_3_83
*689 FILLER_0_4_11
*690 FILLER_0_4_123
*691 FILLER_0_4_131
*692 FILLER_0_4_136
*693 FILLER_0_4_141
*694 FILLER_0_4_149
*695 FILLER_0_4_154
*696 FILLER_0_4_166
*697 FILLER_0_4_174
*698 FILLER_0_4_19
*699 FILLER_0_4_3
*700 FILLER_0_4_37
*701 FILLER_0_4_55
*702 FILLER_0_4_79
*703 FILLER_0_4_83
*704 FILLER_0_4_85
*705 FILLER_0_4_91
*706 FILLER_0_5_122
*707 FILLER_0_5_156
*708 FILLER_0_5_169
*709 FILLER_0_5_26
*710 FILLER_0_5_3
*711 FILLER_0_5_49
*712 FILLER_0_5_55
*713 FILLER_0_5_57
*714 FILLER_0_5_65
*715 FILLER_0_5_79
*716 FILLER_0_5_91
*717 FILLER_0_6_100
*718 FILLER_0_6_121
*719 FILLER_0_6_131
*720 FILLER_0_6_139
*721 FILLER_0_6_141
*722 FILLER_0_6_15
*723 FILLER_0_6_153
*724 FILLER_0_6_165
*725 FILLER_0_6_173
*726 FILLER_0_6_19
*727 FILLER_0_6_27
*728 FILLER_0_6_3
*729 FILLER_0_6_32
*730 FILLER_0_6_40
*731 FILLER_0_6_94
*732 FILLER_0_7_101
*733 FILLER_0_7_105
*734 FILLER_0_7_113
*735 FILLER_0_7_12
*736 FILLER_0_7_142
*737 FILLER_0_7_148
*738 FILLER_0_7_160
*739 FILLER_0_7_169
*740 FILLER_0_7_20
*741 FILLER_0_7_38
*742 FILLER_0_7_44
*743 FILLER_0_7_54
*744 FILLER_0_7_57
*745 FILLER_0_8_159
*746 FILLER_0_8_169
*747 FILLER_0_8_26
*748 FILLER_0_8_40
*749 FILLER_0_8_72
*750 FILLER_0_8_96
*751 FILLER_0_9_105
*752 FILLER_0_9_11
*753 FILLER_0_9_111
*754 FILLER_0_9_113
*755 FILLER_0_9_125
*756 FILLER_0_9_167
*757 FILLER_0_9_169
*758 FILLER_0_9_3
*759 FILLER_0_9_53
*760 FILLER_0_9_72
*761 FILLER_0_9_81
*762 FILLER_0_9_93
*763 PHY_0
*764 PHY_1
*765 PHY_10
*766 PHY_11
*767 PHY_12
*768 PHY_13
*769 PHY_14
*770 PHY_15
*771 PHY_16
*772 PHY_17
*773 PHY_18
*774 PHY_19
*775 PHY_2
*776 PHY_20
*777 PHY_21
*778 PHY_22
*779 PHY_23
*780 PHY_24
*781 PHY_25
*782 PHY_26
*783 PHY_27
*784 PHY_28
*785 PHY_29
*786 PHY_3
*787 PHY_30
*788 PHY_31
*789 PHY_32
*790 PHY_33
*791 PHY_34
*792 PHY_35
*793 PHY_36
*794 PHY_37
*795 PHY_38
*796 PHY_39
*797 PHY_4
*798 PHY_40
*799 PHY_41
*800 PHY_42
*801 PHY_43
*802 PHY_44
*803 PHY_45
*804 PHY_46
*805 PHY_47
*806 PHY_48
*807 PHY_49
*808 PHY_5
*809 PHY_50
*810 PHY_51
*811 PHY_52
*812 PHY_53
*813 PHY_54
*814 PHY_55
*815 PHY_56
*816 PHY_57
*817 PHY_58
*818 PHY_59
*819 PHY_6
*820 PHY_7
*821 PHY_8
*822 PHY_9
*823 TAP_100
*824 TAP_101
*825 TAP_102
*826 TAP_103
*827 TAP_104
*828 TAP_105
*829 TAP_106
*830 TAP_107
*831 TAP_108
*832 TAP_109
*833 TAP_110
*834 TAP_111
*835 TAP_112
*836 TAP_113
*837 TAP_114
*838 TAP_115
*839 TAP_116
*840 TAP_117
*841 TAP_118
*842 TAP_119
*843 TAP_120
*844 TAP_121
*845 TAP_122
*846 TAP_123
*847 TAP_124
*848 TAP_125
*849 TAP_126
*850 TAP_127
*851 TAP_128
*852 TAP_129
*853 TAP_130
*854 TAP_131
*855 TAP_132
*856 TAP_133
*857 TAP_134
*858 TAP_135
*859 TAP_136
*860 TAP_137
*861 TAP_138
*862 TAP_139
*863 TAP_140
*864 TAP_141
*865 TAP_142
*866 TAP_143
*867 TAP_144
*868 TAP_145
*869 TAP_146
*870 TAP_147
*871 TAP_148
*872 TAP_149
*873 TAP_150
*874 TAP_151
*875 TAP_152
*876 TAP_153
*877 TAP_154
*878 TAP_155
*879 TAP_60
*880 TAP_61
*881 TAP_62
*882 TAP_63
*883 TAP_64
*884 TAP_65
*885 TAP_66
*886 TAP_67
*887 TAP_68
*888 TAP_69
*889 TAP_70
*890 TAP_71
*891 TAP_72
*892 TAP_73
*893 TAP_74
*894 TAP_75
*895 TAP_76
*896 TAP_77
*897 TAP_78
*898 TAP_79
*899 TAP_80
*900 TAP_81
*901 TAP_82
*902 TAP_83
*903 TAP_84
*904 TAP_85
*905 TAP_86
*906 TAP_87
*907 TAP_88
*908 TAP_89
*909 TAP_90
*910 TAP_91
*911 TAP_92
*912 TAP_93
*913 TAP_94
*914 TAP_95
*915 TAP_96
*916 TAP_97
*917 TAP_98
*918 TAP_99
*919 _211_
*920 _212_
*921 _213_
*922 _214_
*923 _215_
*924 _216_
*925 _217_
*926 _218_
*927 _219_
*928 _220_
*929 _221_
*930 _222_
*931 _223_
*932 _224_
*933 _225_
*934 _226_
*935 _227_
*936 _228_
*937 _229_
*938 _230_
*939 _231_
*940 _232_
*941 _233_
*942 _234_
*943 _235_
*944 _236_
*945 _237_
*946 _238_
*947 _239_
*948 _240_
*949 _241_
*950 _242_
*951 _243_
*952 _244_
*953 _245_
*954 _246_
*955 _247_
*956 _248_
*957 _249_
*958 _250_
*959 _251_
*960 _252_
*961 _253_
*962 _254_
*963 _255_
*964 _256_
*965 _257_
*966 _258_
*967 _259_
*968 _260_
*969 _261_
*970 _262_
*971 _263_
*972 _264_
*973 _265_
*974 _266_
*975 _267_
*976 _268_
*977 _269_
*978 _270_
*979 _271_
*980 _272_
*981 _273_
*982 _274_
*983 _275_
*984 _276_
*985 _277_
*986 _278_
*987 _279_
*988 _280_
*989 _281_
*990 _282_
*991 _283_
*992 _284_
*993 _285_
*994 _286_
*995 _287_
*996 _288_
*997 _289_
*998 _290_
*999 _291_
*1000 _292_
*1001 _293_
*1002 _294_
*1003 _295_
*1004 _296_
*1005 _297_
*1006 _298_
*1007 _299_
*1008 _300_
*1009 _301_
*1010 _302_
*1011 _303_
*1012 _304_
*1013 _305_
*1014 _306_
*1015 _307_
*1016 _308_
*1017 _309_
*1018 _310_
*1019 _311_
*1020 _312_
*1021 _313_
*1022 _314_
*1023 _315_
*1024 _316_
*1025 _317_
*1026 _318_
*1027 _319_
*1028 _320_
*1029 _321_
*1030 _322_
*1031 _323_
*1032 _324_
*1033 _325_
*1034 _326_
*1035 _327_
*1036 _328_
*1037 _329_
*1038 _330_
*1039 _331_
*1040 _332_
*1041 _333_
*1042 _334_
*1043 _335_
*1044 _336_
*1045 _337_
*1046 _338_
*1047 _339_
*1048 _340_
*1049 _341_
*1050 _342_
*1051 _343_
*1052 _344_
*1053 _345_
*1054 _346_
*1055 _347_
*1056 _348_
*1057 _349_
*1058 _350_
*1059 _351_
*1060 _352_
*1061 _353_
*1062 _354_
*1063 _355_
*1064 _356_
*1065 _357_
*1066 _358_
*1067 _359_
*1068 _360_
*1069 _361_
*1070 _362_
*1071 _363_
*1072 _364_
*1073 _365_
*1074 _366_
*1075 _367_
*1076 _368_
*1077 _369_
*1078 _370_
*1079 _371_
*1080 _372_
*1081 _373_
*1082 _374_
*1083 _375_
*1084 _376_
*1085 _377_
*1086 _378_
*1087 _379_
*1088 _380_
*1089 _381_
*1090 _382_
*1091 _383_
*1092 _384_
*1093 _385_
*1094 _386_
*1095 _387_
*1096 _388_
*1097 _389_
*1098 _390_
*1099 _391_
*1100 _392_
*1101 _393_
*1102 _394_
*1103 _395_
*1104 _396_
*1105 _397_
*1106 _398_
*1107 _399_
*1108 _400_
*1109 _401_
*1110 _402_
*1111 _403_
*1112 _404_
*1113 _405_
*1114 _406_
*1115 _407_
*1116 _408_
*1117 _409_
*1118 _410_
*1119 _411_
*1120 _412_
*1121 _413_
*1122 _414_
*1123 _415_
*1124 _416_
*1125 _417_
*1126 _418_
*1127 _419_
*1128 _420_
*1129 _421_
*1130 _422_
*1131 _423_
*1132 _424_
*1133 _425_
*1134 _426_
*1135 _427_
*1136 _428_
*1137 _429_
*1138 _430_
*1139 _431_
*1140 _432_
*1141 _433_
*1142 _434_
*1143 _435_
*1144 _436_
*1145 _437_
*1146 _438_
*1147 _439_
*1148 _440_
*1149 _441_
*1150 _442_
*1151 _443_
*1152 _444_
*1153 _445_
*1154 _446_
*1155 _447_
*1156 _448_
*1157 _449_
*1158 _450_
*1159 _451_
*1160 _452_
*1161 _453_
*1162 _454_
*1163 _455_
*1164 _456_
*1165 _457_
*1166 _458_
*1167 _459_
*1168 _460_
*1169 _461_
*1170 _462_
*1171 _463_
*1172 _464_
*1173 _465_
*1174 _466_
*1175 _467_
*1176 _468_
*1177 _469_
*1178 _470_
*1179 _471_
*1180 _472_
*1181 _473_
*1182 _474_
*1183 _475_
*1184 _476_
*1185 _477_
*1186 _478_
*1187 _479_
*1188 _480_
*1189 _481_
*1190 _482_
*1191 _483_
*1192 _484_
*1193 _485_
*1194 _486_
*1195 clkbuf_0_clk
*1196 clkbuf_3_0__f_clk
*1197 clkbuf_3_1__f_clk
*1198 clkbuf_3_2__f_clk
*1199 clkbuf_3_3__f_clk
*1200 clkbuf_3_4__f_clk
*1201 clkbuf_3_5__f_clk
*1202 clkbuf_3_6__f_clk
*1203 clkbuf_3_7__f_clk
*1204 hold1
*1205 hold10
*1206 hold11
*1207 hold12
*1208 hold13
*1209 hold14
*1210 hold15
*1211 hold16
*1212 hold17
*1213 hold18
*1214 hold19
*1215 hold2
*1216 hold20
*1217 hold21
*1218 hold22
*1219 hold23
*1220 hold24
*1221 hold25
*1222 hold26
*1223 hold27
*1224 hold28
*1225 hold29
*1226 hold3
*1227 hold30
*1228 hold31
*1229 hold32
*1230 hold33
*1231 hold34
*1232 hold35
*1233 hold36
*1234 hold37
*1235 hold38
*1236 hold39
*1237 hold4
*1238 hold40
*1239 hold41
*1240 hold42
*1241 hold43
*1242 hold44
*1243 hold45
*1244 hold46
*1245 hold47
*1246 hold5
*1247 hold6
*1248 hold7
*1249 hold8
*1250 hold9
*1251 input1
*1252 input10
*1253 input11
*1254 input12
*1255 input13
*1256 input14
*1257 input15
*1258 input16
*1259 input17
*1260 input2
*1261 input3
*1262 input4
*1263 input5
*1264 input6
*1265 input7
*1266 input8
*1267 input9
*1268 max_cap25
*1269 output18
*1270 output19
*1271 output20
*1272 output21
*1273 output22
*1274 output23
*1275 output24
*1276 wire26

*PORTS
clk I
i_valid I
i_value0[0] I
i_value0[1] I
i_value0[2] I
i_value1[0] I
i_value1[1] I
i_value1[2] I
i_value2[0] I
i_value2[1] I
i_value2[2] I
i_value3[0] I
i_value3[1] I
i_value3[2] I
i_value4[0] I
i_value4[1] I
i_value4[2] I
o_bucket[0] O
o_bucket[1] O
o_bucket[2] O
o_index[0] O
o_index[1] O
o_index[2] O
o_valid O
rst_n I

*D_NET *3 0.0103331
*CONN
*P clk I
*I *1195:A I *D sky130_fd_sc_hd__clkbuf_16
*CAP
1 clk 0.00504315
2 *1195:A 0
3 *3:17 0.00504315
4 *3:17 *213:14 0
5 *3:17 *236:10 0
6 *3:17 *239:113 0.000246757
*RES
1 clk *3:17 38.1826 
2 *3:17 *1195:A 38 
*END

*D_NET *4 0.000557306
*CONN
*P i_valid I
*I *1251:A I *D sky130_fd_sc_hd__clkbuf_1
*CAP
1 i_valid 0.000278653
2 *1251:A 0.000278653
3 *1251:A *240:94 0
*RES
1 i_valid *1251:A 49.5289 
*END

*D_NET *5 0.000999545
*CONN
*P i_value0[0] I
*I *1260:A I *D sky130_fd_sc_hd__buf_1
*CAP
1 i_value0[0] 0.000471419
2 *1260:A 0.000471419
3 *1260:A *314:14 5.67058e-05
*RES
1 i_value0[0] *1260:A 48.1707 
*END

*D_NET *6 0.00128274
*CONN
*P i_value0[1] I
*I *1261:A I *D sky130_fd_sc_hd__buf_1
*CAP
1 i_value0[1] 0.00064137
2 *1261:A 0
3 *6:9 0.00064137
4 *6:9 *1257:A 0
*RES
1 i_value0[1] *6:9 28.6093 
2 *6:9 *1261:A 23 
*END

*D_NET *7 0.0012065
*CONN
*P i_value0[2] I
*I *1262:A I *D sky130_fd_sc_hd__buf_1
*CAP
1 i_value0[2] 0.000531998
2 *1262:A 0
3 *7:15 0.000531998
4 *7:15 *1237:A 0
5 *7:15 *1265:A 8.57986e-05
6 *7:15 *314:12 5.67058e-05
*RES
1 i_value0[2] *7:15 31.8999 
2 *7:15 *1262:A 23 
*END

*D_NET *8 0.00096765
*CONN
*P i_value1[0] I
*I *1263:A I *D sky130_fd_sc_hd__clkbuf_1
*CAP
1 i_value1[0] 0.000483825
2 *1263:A 0.000483825
*RES
1 i_value1[0] *1263:A 48.1707 
*END

*D_NET *9 0.000686181
*CONN
*P i_value1[1] I
*I *1264:A I *D sky130_fd_sc_hd__buf_1
*CAP
1 i_value1[1] 0.00034309
2 *1264:A 0.00034309
3 *1264:A *54:10 0
*RES
1 i_value1[1] *1264:A 49.1918 
*END

*D_NET *10 0.00118194
*CONN
*P i_value1[2] I
*I *1265:A I *D sky130_fd_sc_hd__buf_1
*CAP
1 i_value1[2] 0.000539242
2 *1265:A 0.000539242
3 *1265:A *314:12 1.76557e-05
4 *7:15 *1265:A 8.57986e-05
*RES
1 i_value1[2] *1265:A 49.745 
*END

*D_NET *11 0.00131708
*CONN
*P i_value2[0] I
*I *1266:A I *D sky130_fd_sc_hd__buf_1
*CAP
1 i_value2[0] 0.000639185
2 *1266:A 0
3 *11:13 0.000639185
4 *11:13 *26:10 3.87132e-05
*RES
1 i_value2[0] *11:13 28.1743 
2 *11:13 *1266:A 23 
*END

*D_NET *12 0.00129104
*CONN
*P i_value2[1] I
*I *1267:A I *D sky130_fd_sc_hd__buf_1
*CAP
1 i_value2[1] 0.00044769
2 *1267:A 0.00044769
3 *1267:A *250:14 7.88926e-05
4 *1267:A *255:16 8.62876e-05
5 *1267:A *255:22 0.00014196
6 *1267:A *320:8 8.85189e-05
*RES
1 i_value2[1] *1267:A 48.2743 
*END

*D_NET *13 0.000609947
*CONN
*P i_value2[2] I
*I *1252:A I *D sky130_fd_sc_hd__buf_1
*CAP
1 i_value2[2] 0.000304973
2 *1252:A 0
3 *13:13 0.000304973
4 *13:13 *15:9 0
*RES
1 i_value2[2] *13:13 27.2332 
2 *13:13 *1252:A 23 
*END

*D_NET *14 0.00101716
*CONN
*P i_value3[0] I
*I *1253:A I *D sky130_fd_sc_hd__buf_1
*CAP
1 i_value3[0] 0.000493907
2 *1253:A 0.000493907
3 *1253:A *250:12 2.93431e-05
*RES
1 i_value3[0] *1253:A 48.2743 
*END

*D_NET *15 0.00150771
*CONN
*P i_value3[1] I
*I *1254:A I *D sky130_fd_sc_hd__buf_1
*CAP
1 i_value3[1] 0.000753856
2 *1254:A 0
3 *15:9 0.000753856
4 *13:13 *15:9 0
*RES
1 i_value3[1] *15:9 30.9914 
2 *15:9 *1254:A 23 
*END

*D_NET *16 0.00106584
*CONN
*P i_value3[2] I
*I *1255:A I *D sky130_fd_sc_hd__buf_1
*CAP
1 i_value3[2] 0.000502093
2 *1255:A 0.000502093
3 *1255:A *93:30 6.16531e-05
*RES
1 i_value3[2] *1255:A 48.8957 
*END

*D_NET *17 0.00140214
*CONN
*P i_value4[0] I
*I *1256:A I *D sky130_fd_sc_hd__buf_1
*CAP
1 i_value4[0] 0.000590571
2 *1256:A 0
3 *17:15 0.000590571
4 *17:15 *314:22 7.41768e-05
5 *17:15 *335:27 0.000146822
*RES
1 i_value4[0] *17:15 28.3193 
2 *17:15 *1256:A 23 
*END

*D_NET *18 0.000616896
*CONN
*P i_value4[1] I
*I *1257:A I *D sky130_fd_sc_hd__buf_1
*CAP
1 i_value4[1] 0.000308448
2 *1257:A 0.000308448
3 *1257:A *254:10 0
4 *1257:A *270:8 0
5 *6:9 *1257:A 0
*RES
1 i_value4[1] *1257:A 49.9876 
*END

*D_NET *19 0.00131211
*CONN
*P i_value4[2] I
*I *1258:A I *D sky130_fd_sc_hd__buf_1
*CAP
1 i_value4[2] 0.000556818
2 *1258:A 0.000556818
3 *1258:A *1028:A 6.29487e-05
4 *1258:A *1029:B1 1.22822e-05
5 *1258:A *1033:A 9.84851e-05
6 *1258:A *181:8 2.4754e-05
7 *1258:A *252:23 0
8 *1258:A *255:8 0
*RES
1 i_value4[2] *1258:A 49.8486 
*END

*D_NET *20 0.000606306
*CONN
*P o_bucket[0] O
*I *1269:X O *D sky130_fd_sc_hd__buf_2
*CAP
1 o_bucket[0] 0.00026612
2 *1269:X 0.00026612
3 o_bucket[0] *1269:A 7.40663e-05
*RES
1 *1269:X o_bucket[0] 47.8691 
*END

*D_NET *21 0.000652469
*CONN
*P o_bucket[1] O
*I *1270:X O *D sky130_fd_sc_hd__buf_2
*CAP
1 o_bucket[1] 0.000310612
2 *1270:X 0.000310612
3 o_bucket[1] *258:8 3.12448e-05
*RES
1 *1270:X o_bucket[1] 47.955 
*END

*D_NET *22 0.00070979
*CONN
*P o_bucket[2] O
*I *1271:X O *D sky130_fd_sc_hd__clkbuf_4
*CAP
1 o_bucket[2] 8.53373e-05
2 *1271:X 0.000269558
3 *22:10 0.000354895
4 *22:10 *260:10 0
*RES
1 *1271:X *22:10 42.0289 
2 *22:10 o_bucket[2] 8.32853 
*END

*D_NET *23 0.00127076
*CONN
*P o_index[0] O
*I *1272:X O *D sky130_fd_sc_hd__buf_2
*CAP
1 o_index[0] 0.000571908
2 *1272:X 0.000571908
3 o_index[0] *1234:A 8.1796e-05
4 o_index[0] *261:12 2.93747e-05
5 o_index[0] *314:14 1.5769e-05
*RES
1 *1272:X o_index[0] 49.2271 
*END

*D_NET *24 0.00192467
*CONN
*P o_index[1] O
*I *1273:X O *D sky130_fd_sc_hd__clkbuf_4
*CAP
1 o_index[1] 0.000371241
2 *1273:X 0.000410581
3 *24:10 0.000781823
4 *24:10 *255:35 0.000361027
*RES
1 *1273:X *24:10 44.4836 
2 *24:10 o_index[1] 7.99571 
*END

*D_NET *25 0.00060914
*CONN
*P o_index[2] O
*I *1274:X O *D sky130_fd_sc_hd__clkbuf_4
*CAP
1 o_index[2] 8.53373e-05
2 *1274:X 0.000219232
3 *25:12 0.00030457
4 *25:12 *263:18 0
*RES
1 *1274:X *25:12 49.9046 
2 *25:12 o_index[2] 0.328533 
*END

*D_NET *26 0.00123979
*CONN
*P o_valid O
*I *1275:X O *D sky130_fd_sc_hd__clkbuf_4
*CAP
1 o_valid 9.75781e-05
2 *1275:X 0.000502961
3 *26:10 0.000600539
4 *26:10 *264:8 0
5 *11:13 *26:10 3.87132e-05
*RES
1 *1275:X *26:10 47.0832 
2 *26:10 o_valid 8.32853 
*END

*D_NET *27 0.000708882
*CONN
*P rst_n I
*I *1259:A I *D sky130_fd_sc_hd__buf_12
*CAP
1 rst_n 0.000306948
2 *1259:A 0.000306948
3 *1259:A *270:8 9.4987e-05
*RES
1 rst_n *1259:A 49.1918 
*END

*D_NET *28 0.0008926
*CONN
*I *1130:D I *D sky130_fd_sc_hd__dfrtp_1
*I *1129:A I *D sky130_fd_sc_hd__nor2_1
*I *922:X O *D sky130_fd_sc_hd__clkbuf_1
*CAP
1 *1130:D 0
2 *1129:A 4.21005e-05
3 *922:X 3.69902e-05
4 *28:21 0.000118915
5 *28:6 0.000198006
6 *1129:A *921:B 1.92324e-05
7 *1129:A *1128:B 3.28357e-06
8 *1129:A *95:8 0.000102971
9 *28:6 *1128:B 0.000234542
10 *28:6 *1129:B 3.26241e-05
11 *28:6 *95:8 2.73653e-05
12 *28:21 *91:16 7.65699e-05
*RES
1 *922:X *28:6 25.5271 
2 *28:6 *1129:A 24.9471 
3 *28:6 *28:21 32.2579 
4 *28:21 *1130:D 23 
*END

*D_NET *29 0.000311727
*CONN
*I *1186:D I *D sky130_fd_sc_hd__dfrtp_1
*I *968:Y O *D sky130_fd_sc_hd__o21ai_1
*CAP
1 *1186:D 0.000146622
2 *968:Y 0.000146622
3 *1186:D *30:22 1.84831e-05
*RES
1 *968:Y *1186:D 48.0507 
*END

*D_NET *30 0.0276941
*CONN
*I *1084:S I *D sky130_fd_sc_hd__mux2_1
*I *1086:S I *D sky130_fd_sc_hd__mux2_1
*I *1095:S I *D sky130_fd_sc_hd__mux2_1
*I *1097:S I *D sky130_fd_sc_hd__mux2_1
*I *1092:S I *D sky130_fd_sc_hd__mux2_1
*I *1179:D I *D sky130_fd_sc_hd__dfrtp_1
*I *1088:S I *D sky130_fd_sc_hd__mux2_1
*I *956:X O *D sky130_fd_sc_hd__clkbuf_4
*CAP
1 *1084:S 5.88662e-05
2 *1086:S 0
3 *1095:S 0
4 *1097:S 0
5 *1092:S 0
6 *1179:D 0.000101317
7 *1088:S 0
8 *956:X 0
9 *30:119 0.000563425
10 *30:113 0.000702061
11 *30:109 0.00210366
12 *30:98 0.00015783
13 *30:90 0.000812698
14 *30:82 0.00293286
15 *30:70 0.0018769
16 *30:47 0.00273559
17 *30:34 0.00134425
18 *30:22 0.00270488
19 *30:18 0.00255224
20 *30:4 0.000688325
21 *1084:S *355:44 4.45955e-05
22 *1179:D *1179:CLK 2.93335e-05
23 *1179:D *1179:RESET_B 3.24862e-05
24 *30:18 *955:A_N 7.34273e-05
25 *30:18 *1122:A2 0.000525417
26 *30:18 *129:48 6.49555e-06
27 *30:18 *219:10 0.000143031
28 *30:22 *130:40 0.000794858
29 *30:34 *1088:A1 1.59071e-05
30 *30:34 *1172:CLK 0.000131735
31 *30:34 *78:12 1.32314e-05
32 *30:34 *244:10 0.000574734
33 *30:34 *280:10 0
34 *30:34 *319:10 0.00123464
35 *30:47 *1088:A1 7.87147e-05
36 *30:47 *78:12 0
37 *30:47 *163:10 0.000110258
38 *30:47 *164:10 0.000143166
39 *30:47 *245:25 0
40 *30:47 *245:40 0
41 *30:47 *280:10 8.16459e-05
42 *30:47 *283:10 0
43 *30:70 *1137:D 0.000190532
44 *30:70 *1139:D 3.4697e-05
45 *30:70 *1139:RESET_B 0.000303374
46 *30:70 *1179:CLK 3.76416e-05
47 *30:70 *1179:RESET_B 4.05952e-05
48 *30:70 *245:76 0.000225857
49 *30:70 *256:393 2.33744e-05
50 *30:70 *335:12 5.82853e-05
51 *30:82 *967:A1 3.06911e-05
52 *30:82 *1122:A2 4.79228e-05
53 *30:82 *97:33 2.1369e-05
54 *30:90 *102:112 0.000550195
55 *30:90 *105:10 0.000190749
56 *30:90 *235:8 8.87374e-05
57 *30:98 *932:B1 9.4798e-06
58 *30:98 *1095:A0 5.56279e-05
59 *30:98 *102:112 0
60 *30:109 *1174:CLK 0.000571965
61 *30:109 *1174:D 2.93747e-05
62 *30:109 *1174:RESET_B 1.59201e-05
63 *30:109 *97:33 8.11349e-05
64 *30:109 *256:599 0.000218119
65 *30:109 *256:611 0.000413152
66 *30:109 *256:618 0.000140875
67 *30:109 *256:628 6.12484e-05
68 *30:113 *210:10 5.68958e-05
69 *30:113 *355:44 0.000233367
70 *30:119 *99:35 0.000497435
71 *30:119 *210:10 7.84107e-05
72 *30:119 *256:628 0
73 *30:119 *256:638 0
74 *1186:D *30:22 1.84831e-05
*RES
1 *956:X *30:4 23 
2 *30:4 *30:18 39.5079 
3 *30:18 *30:22 35.8979 
4 *30:22 *30:34 48.9121 
5 *30:34 *1088:S 23 
6 *30:34 *30:47 45.4529 
7 *30:47 *1179:D 25.0507 
8 *30:47 *30:70 28.0471 
9 *30:70 *1092:S 23 
10 *30:22 *1097:S 23 
11 *30:4 *30:82 3.48 
12 *30:82 *30:90 41.4964 
13 *30:90 *30:98 32.8793 
14 *30:98 *1095:S 23 
15 *30:82 *30:109 48.2464 
16 *30:109 *30:113 17.5271 
17 *30:113 *30:119 43.8786 
18 *30:119 *1086:S 23 
19 *30:113 *1084:S 24.0979 
*END

*D_NET *31 0.0010253
*CONN
*I *1131:D I *D sky130_fd_sc_hd__dfrtp_1
*I *976:X O *D sky130_fd_sc_hd__clkbuf_1
*CAP
1 *1131:D 0.000107331
2 *976:X 0.000117362
3 *31:8 0.000224693
4 *1131:D *1131:CLK 2.3853e-05
5 *1131:D *256:26 6.29803e-05
6 *31:8 *977:A0 0.000197479
7 *31:8 *145:55 0.000171906
8 *31:8 *256:36 4.06408e-05
9 *31:8 *324:116 7.90568e-05
*RES
1 *976:X *31:8 42.3707 
2 *31:8 *1131:D 40.2164 
*END

*D_NET *32 0.000832394
*CONN
*I *1132:D I *D sky130_fd_sc_hd__dfrtp_1
*I *978:X O *D sky130_fd_sc_hd__clkbuf_1
*CAP
1 *1132:D 0
2 *978:X 0.00030048
3 *32:10 0.00030048
4 *32:10 *1224:A 8.82055e-05
5 *32:10 *262:18 7.03766e-05
6 *32:10 *326:126 7.28526e-05
*RES
1 *978:X *32:10 43.3857 
2 *32:10 *1132:D 38 
*END

*D_NET *33 0.000618848
*CONN
*I *1133:D I *D sky130_fd_sc_hd__dfrtp_1
*I *980:X O *D sky130_fd_sc_hd__clkbuf_1
*CAP
1 *1133:D 0.000235176
2 *980:X 0.000235176
3 *1133:D *243:31 0.000148496
*RES
1 *980:X *1133:D 49.5007 
*END

*D_NET *34 0.000515418
*CONN
*I *1134:D I *D sky130_fd_sc_hd__dfrtp_1
*I *988:X O *D sky130_fd_sc_hd__clkbuf_1
*CAP
1 *1134:D 0.000104286
2 *988:X 0.000138652
3 *34:10 0.000242938
4 *34:10 *256:771 2.95423e-05
*RES
1 *988:X *34:10 40.175 
2 *34:10 *1134:D 39.5743 
*END

*D_NET *35 0.000428765
*CONN
*I *1135:D I *D sky130_fd_sc_hd__dfrtp_1
*I *990:X O *D sky130_fd_sc_hd__clkbuf_1
*CAP
1 *1135:D 9.41461e-05
2 *990:X 5.8763e-05
3 *35:8 0.000152909
4 *1135:D *99:22 3.71887e-05
5 *35:8 *1134:RESET_B 7.56656e-05
6 *35:8 *1173:RESET_B 1.0092e-05
*RES
1 *990:X *35:8 39.2014 
2 *35:8 *1135:D 39.595 
*END

*D_NET *36 0.000679253
*CONN
*I *1136:D I *D sky130_fd_sc_hd__dfrtp_1
*I *991:X O *D sky130_fd_sc_hd__a21o_1
*CAP
1 *1136:D 4.63595e-05
2 *991:X 0.000203633
3 *36:14 0.000249993
4 *36:14 *93:277 8.0033e-05
5 *36:14 *281:29 0
6 *36:14 *314:12 9.92345e-05
*RES
1 *991:X *36:14 41.77 
2 *36:14 *1136:D 38.6214 
*END

*D_NET *37 0.000617802
*CONN
*I *1137:D I *D sky130_fd_sc_hd__dfrtp_1
*I *999:X O *D sky130_fd_sc_hd__clkbuf_1
*CAP
1 *1137:D 7.96996e-05
2 *999:X 4.54224e-05
3 *37:8 0.000125122
4 *1137:D *1179:CLK 0.000100069
5 *1137:D *245:40 7.12002e-05
6 *37:8 *163:10 5.75756e-06
7 *37:8 *319:10 0
8 *30:70 *1137:D 0.000190532
*RES
1 *999:X *37:8 38.8493 
2 *37:8 *1137:D 41.1693 
*END

*D_NET *38 0.00044567
*CONN
*I *1138:D I *D sky130_fd_sc_hd__dfrtp_1
*I *1001:X O *D sky130_fd_sc_hd__clkbuf_1
*CAP
1 *1138:D 0.000185572
2 *1001:X 0.000185572
3 *1138:D *1138:CLK 7.4525e-05
*RES
1 *1001:X *1138:D 48.4287 
*END

*D_NET *39 0.00060031
*CONN
*I *1139:D I *D sky130_fd_sc_hd__dfrtp_1
*I *1002:X O *D sky130_fd_sc_hd__a21o_1
*CAP
1 *1139:D 0.000163935
2 *1002:X 6.8787e-05
3 *39:8 0.000232722
4 *1139:D *245:76 7.47551e-05
5 *39:8 *253:22 0
6 *39:8 *307:10 2.5415e-05
7 *30:70 *1139:D 3.4697e-05
*RES
1 *1002:X *39:8 39.2014 
2 *39:8 *1139:D 40.4339 
*END

*D_NET *40 0.00072698
*CONN
*I *1140:D I *D sky130_fd_sc_hd__dfrtp_1
*I *1004:X O *D sky130_fd_sc_hd__clkbuf_1
*CAP
1 *1140:D 0
2 *1004:X 0.000256399
3 *40:10 0.000256399
4 *40:10 *126:228 0
5 *40:10 *154:27 4.58924e-05
6 *40:10 *154:33 9.84851e-05
7 *40:10 *302:23 6.9805e-05
*RES
1 *1004:X *40:10 42.4329 
2 *40:10 *1140:D 38 
*END

*D_NET *41 0.00129492
*CONN
*I *1141:D I *D sky130_fd_sc_hd__dfrtp_1
*I *1006:X O *D sky130_fd_sc_hd__clkbuf_1
*CAP
1 *1141:D 0.000100812
2 *1006:X 0.00025503
3 *41:10 0.000355842
4 *1141:D *355:44 7.17698e-05
5 *41:10 *113:8 2.19667e-05
6 *41:10 *166:16 6.53192e-05
7 *41:10 *294:10 8.36198e-05
8 *41:10 *294:14 1.59094e-05
9 *41:10 *324:120 0.000324656
*RES
1 *1006:X *41:10 43.945 
2 *41:10 *1141:D 39.5743 
*END

*D_NET *42 0.0011679
*CONN
*I *1142:D I *D sky130_fd_sc_hd__dfrtp_1
*I *1008:X O *D sky130_fd_sc_hd__clkbuf_1
*CAP
1 *1142:D 0.000101499
2 *1008:X 0.000111061
3 *42:8 0.000212559
4 *1142:D *1142:RESET_B 5.3304e-05
5 *1142:D *246:48 2.45549e-06
6 *1142:D *246:83 2.85723e-05
7 *42:8 *1191:RESET_B 3.46013e-05
8 *42:8 *256:720 0.000298548
9 *42:8 *355:19 0.000132111
10 *42:8 *355:31 0.000193187
*RES
1 *1008:X *42:8 42.3707 
2 *42:8 *1142:D 39.5743 
*END

*D_NET *43 0.000369962
*CONN
*I *1143:D I *D sky130_fd_sc_hd__dfrtp_1
*I *1016:X O *D sky130_fd_sc_hd__clkbuf_1
*CAP
1 *1143:D 0
2 *1016:X 0.000175865
3 *43:10 0.000175865
4 *43:10 *44:10 8.91468e-07
5 *43:10 *175:8 1.73399e-05
*RES
1 *1016:X *43:10 40.6514 
2 *43:10 *1143:D 38 
*END

*D_NET *44 0.000319638
*CONN
*I *1144:D I *D sky130_fd_sc_hd__dfrtp_1
*I *1018:X O *D sky130_fd_sc_hd__clkbuf_1
*CAP
1 *1144:D 1.80959e-05
2 *1018:X 0.000141277
3 *44:10 0.000159373
4 *43:10 *44:10 8.91468e-07
*RES
1 *1018:X *44:10 39.8229 
2 *44:10 *1144:D 38.2123 
*END

*D_NET *45 0.000493967
*CONN
*I *1145:D I *D sky130_fd_sc_hd__dfrtp_1
*I *1019:X O *D sky130_fd_sc_hd__a21o_1
*CAP
1 *1145:D 7.72014e-05
2 *1019:X 0.000117493
3 *45:8 0.000194695
4 *1145:D *240:73 0.000104578
*RES
1 *1019:X *45:8 39.9057 
2 *45:8 *1145:D 40.0507 
*END

*D_NET *46 0.000358532
*CONN
*I *1146:D I *D sky130_fd_sc_hd__dfrtp_1
*I *1021:X O *D sky130_fd_sc_hd__clkbuf_1
*CAP
1 *1146:D 5.47056e-05
2 *1021:X 4.61198e-05
3 *46:8 0.000100825
4 *1146:D *245:12 3.22511e-05
5 *46:8 *176:8 3.88725e-05
6 *46:8 *256:377 8.57577e-05
*RES
1 *1021:X *46:8 39.2014 
2 *46:8 *1146:D 38.6888 
*END

*D_NET *47 0.000542041
*CONN
*I *1147:D I *D sky130_fd_sc_hd__dfrtp_1
*I *1023:X O *D sky130_fd_sc_hd__clkbuf_1
*CAP
1 *1147:D 0.000223462
2 *1023:X 0.000223462
3 *1147:D *1182:CLK 4.96217e-05
4 *1147:D *244:44 4.54961e-05
*RES
1 *1023:X *1147:D 49.5007 
*END

*D_NET *48 0.000516468
*CONN
*I *1148:D I *D sky130_fd_sc_hd__dfrtp_1
*I *1025:X O *D sky130_fd_sc_hd__clkbuf_1
*CAP
1 *1148:D 0
2 *1025:X 0.000223482
3 *48:10 0.000223482
4 *48:10 *1182:RESET_B 0
5 *48:10 *319:10 6.95035e-05
*RES
1 *1025:X *48:10 41.48 
2 *48:10 *1148:D 38 
*END

*D_NET *49 0.00106427
*CONN
*I *1149:D I *D sky130_fd_sc_hd__dfrtp_1
*I *1033:X O *D sky130_fd_sc_hd__clkbuf_1
*CAP
1 *1149:D 2.77218e-05
2 *1033:X 0.000342222
3 *49:12 0.000369944
4 *1149:D *240:48 2.64616e-05
5 *1149:D *251:35 5.3304e-05
6 *49:12 *1158:CLK 0.000135468
7 *49:12 *180:25 3.50713e-05
8 *49:12 *185:10 7.40736e-05
9 *49:12 *346:27 0
*RES
1 *1033:X *49:12 43.1371 
2 *49:12 *1149:D 38.6214 
*END

*D_NET *50 0.000389494
*CONN
*I *1150:D I *D sky130_fd_sc_hd__dfrtp_1
*I *1035:X O *D sky130_fd_sc_hd__clkbuf_1
*CAP
1 *1150:D 0.00014302
2 *1035:X 0.00014302
3 *1150:D *1035:A 2.16575e-05
4 *1150:D *1150:CLK 8.1796e-05
*RES
1 *1035:X *1150:D 49.0243 
*END

*D_NET *51 0.00074422
*CONN
*I *1151:D I *D sky130_fd_sc_hd__dfrtp_1
*I *1036:X O *D sky130_fd_sc_hd__a21o_1
*CAP
1 *1151:D 0
2 *1036:X 0.000256808
3 *51:10 0.000256808
4 *51:10 *93:30 0
5 *51:10 *251:6 0.000230604
*RES
1 *1036:X *51:10 42.4329 
2 *51:10 *1151:D 38 
*END

*D_NET *52 0.000564407
*CONN
*I *1152:D I *D sky130_fd_sc_hd__dfrtp_1
*I *1038:X O *D sky130_fd_sc_hd__clkbuf_1
*CAP
1 *1152:D 0
2 *1038:X 0.000197609
3 *52:10 0.000197609
4 *52:10 *239:98 5.5792e-05
5 *52:10 *326:53 0.000113398
*RES
1 *1038:X *52:10 41.1279 
2 *52:10 *1152:D 38 
*END

*D_NET *53 0.000951297
*CONN
*I *1153:D I *D sky130_fd_sc_hd__dfrtp_1
*I *1040:X O *D sky130_fd_sc_hd__clkbuf_1
*CAP
1 *1153:D 0
2 *1040:X 0.000280976
3 *53:10 0.000280976
4 *53:10 *1235:A 0.000275846
5 *53:10 *326:53 0.000113498
6 *53:10 *339:16 0
*RES
1 *1040:X *53:10 42.5571 
2 *53:10 *1153:D 38 
*END

*D_NET *54 0.000559432
*CONN
*I *1154:D I *D sky130_fd_sc_hd__dfrtp_1
*I *1042:X O *D sky130_fd_sc_hd__clkbuf_1
*CAP
1 *1154:D 0
2 *1042:X 0.000279716
3 *54:10 0.000279716
4 *54:10 *319:10 0
5 *1264:A *54:10 0
*RES
1 *1042:X *54:10 42.0807 
2 *54:10 *1154:D 38 
*END

*D_NET *55 0.000338409
*CONN
*I *1155:D I *D sky130_fd_sc_hd__dfrtp_1
*I *1044:X O *D sky130_fd_sc_hd__clkbuf_1
*CAP
1 *1155:D 0
2 *1044:X 0.00013374
3 *55:10 0.00013374
4 *55:10 *1157:CLK 3.87236e-05
5 *55:10 *253:72 3.22051e-05
*RES
1 *1044:X *55:10 40.5271 
2 *55:10 *1155:D 38 
*END

*D_NET *56 0.000997578
*CONN
*I *1156:D I *D sky130_fd_sc_hd__dfrtp_1
*I *1046:X O *D sky130_fd_sc_hd__clkbuf_1
*CAP
1 *1156:D 0.00028198
2 *1046:X 3.90016e-05
3 *56:8 0.000320981
4 *1156:D *972:A1 5.14746e-06
5 *1156:D *1156:RESET_B 0.000177911
6 *56:8 *141:31 8.62783e-05
7 *56:8 *191:8 8.62783e-05
*RES
1 *1046:X *56:8 39.2014 
2 *56:8 *1156:D 41.9771 
*END

*D_NET *57 0.000575074
*CONN
*I *1157:D I *D sky130_fd_sc_hd__dfrtp_1
*I *1047:X O *D sky130_fd_sc_hd__a21o_1
*CAP
1 *1157:D 0
2 *1047:X 0.000169743
3 *57:10 0.000169743
4 *57:10 *1047:A2 8.29264e-05
5 *57:10 *93:162 5.3835e-05
6 *57:10 *250:14 9.88259e-05
*RES
1 *1047:X *57:10 41.0036 
2 *57:10 *1157:D 38 
*END

*D_NET *58 0.000766946
*CONN
*I *1158:D I *D sky130_fd_sc_hd__dfrtp_1
*I *1049:X O *D sky130_fd_sc_hd__clkbuf_1
*CAP
1 *1158:D 0.000170177
2 *1049:X 7.87035e-05
3 *58:8 0.000248881
4 *1158:D *1158:RESET_B 0.000127306
5 *58:8 *192:8 0.000141879
*RES
1 *1049:X *58:8 39.9057 
2 *58:8 *1158:D 41.48 
*END

*D_NET *59 0.000344454
*CONN
*I *1159:D I *D sky130_fd_sc_hd__dfrtp_1
*I *1051:X O *D sky130_fd_sc_hd__clkbuf_1
*CAP
1 *1159:D 1.82709e-05
2 *1051:X 0.000111289
3 *59:8 0.00012956
4 *1159:D *1159:RESET_B 5.5792e-05
5 *1159:D *326:36 2.95423e-05
*RES
1 *1051:X *59:8 39.5536 
2 *59:8 *1159:D 38.6214 
*END

*D_NET *60 0.000889783
*CONN
*I *1160:D I *D sky130_fd_sc_hd__dfrtp_1
*I *1053:X O *D sky130_fd_sc_hd__clkbuf_1
*CAP
1 *1160:D 6.34251e-05
2 *1053:X 0.000114712
3 *60:8 0.000178137
4 *1160:D *240:67 3.06911e-05
5 *1160:D *240:73 3.42479e-05
6 *1160:D *256:179 0.00023353
7 *60:8 *93:62 3.44447e-05
8 *60:8 *341:22 0.000115559
9 *60:8 *341:37 8.50366e-05
*RES
1 *1053:X *60:8 40.61 
2 *60:8 *1160:D 40.5271 
*END

*D_NET *61 0.000240566
*CONN
*I *1161:D I *D sky130_fd_sc_hd__dfrtp_1
*I *1055:X O *D sky130_fd_sc_hd__clkbuf_1
*CAP
1 *1161:D 0
2 *1055:X 6.21258e-05
3 *61:8 6.21258e-05
4 *61:8 *923:A 0
5 *61:8 *325:112 0.000116314
*RES
1 *1055:X *61:8 39.5536 
2 *61:8 *1161:D 38 
*END

*D_NET *62 0.000585578
*CONN
*I *1162:D I *D sky130_fd_sc_hd__dfrtp_1
*I *1057:X O *D sky130_fd_sc_hd__clkbuf_1
*CAP
1 *1162:D 0.000230512
2 *1057:X 0.000230512
3 *1162:D *1162:CLK 8.26478e-05
4 *1162:D *371:8 4.19071e-05
*RES
1 *1057:X *1162:D 49.5007 
*END

*D_NET *63 0.000580277
*CONN
*I *1163:D I *D sky130_fd_sc_hd__dfrtp_1
*I *1059:X O *D sky130_fd_sc_hd__clkbuf_1
*CAP
1 *1163:D 0
2 *1059:X 0.00016127
3 *63:10 0.00016127
4 *63:10 *197:20 0
5 *63:10 *243:31 0.000257738
*RES
1 *1059:X *63:10 41.1279 
2 *63:10 *1163:D 38 
*END

*D_NET *64 0.000427854
*CONN
*I *1164:D I *D sky130_fd_sc_hd__dfrtp_1
*I *1061:X O *D sky130_fd_sc_hd__clkbuf_1
*CAP
1 *1164:D 0.000108729
2 *1061:X 6.2054e-05
3 *64:8 0.000170783
4 *64:8 *243:31 0
5 *64:8 *367:23 8.62876e-05
*RES
1 *1061:X *64:8 39.2014 
2 *64:8 *1164:D 39.595 
*END

*D_NET *65 0.000934287
*CONN
*I *1165:D I *D sky130_fd_sc_hd__dfrtp_1
*I *1063:X O *D sky130_fd_sc_hd__clkbuf_1
*CAP
1 *1165:D 0
2 *1063:X 0.000396669
3 *65:10 0.000396669
4 *65:10 *240:25 0
5 *65:10 *240:125 0
6 *65:10 *369:8 0.000140949
*RES
1 *1063:X *65:10 44.2971 
2 *65:10 *1165:D 38 
*END

*D_NET *66 0.000294431
*CONN
*I *1166:D I *D sky130_fd_sc_hd__dfrtp_1
*I *1065:X O *D sky130_fd_sc_hd__clkbuf_1
*CAP
1 *1166:D 7.93981e-05
2 *1065:X 7.93981e-05
3 *1166:D *1065:A 7.72936e-05
4 *1166:D *1166:CLK 5.83407e-05
*RES
1 *1065:X *1166:D 48.5479 
*END

*D_NET *67 0.0002486
*CONN
*I *1167:D I *D sky130_fd_sc_hd__dfrtp_1
*I *1067:X O *D sky130_fd_sc_hd__clkbuf_1
*CAP
1 *1167:D 0
2 *1067:X 8.97539e-05
3 *67:8 8.97539e-05
4 *67:8 *93:213 6.90927e-05
*RES
1 *1067:X *67:8 39.9057 
2 *67:8 *1167:D 38 
*END

*D_NET *68 0.000511667
*CONN
*I *1168:D I *D sky130_fd_sc_hd__dfrtp_1
*I *1069:X O *D sky130_fd_sc_hd__clkbuf_1
*CAP
1 *1168:D 4.3992e-05
2 *1069:X 0.000149012
3 *68:10 0.000193004
4 *1168:D *1168:CLK 3.57857e-05
5 *68:10 *126:32 3.31683e-05
6 *68:10 *337:6 5.67058e-05
*RES
1 *1069:X *68:10 40.6514 
2 *68:10 *1168:D 38.6888 
*END

*D_NET *69 0.000291973
*CONN
*I *1169:D I *D sky130_fd_sc_hd__dfrtp_1
*I *1071:X O *D sky130_fd_sc_hd__clkbuf_1
*CAP
1 *1169:D 4.58338e-05
2 *1071:X 7.23375e-05
3 *69:8 0.000118171
4 *69:8 *203:10 5.56306e-05
5 *69:8 *319:10 0
*RES
1 *1071:X *69:8 39.5536 
2 *69:8 *1169:D 38.6214 
*END

*D_NET *70 0.000431858
*CONN
*I *1170:D I *D sky130_fd_sc_hd__dfrtp_1
*I *1073:X O *D sky130_fd_sc_hd__clkbuf_1
*CAP
1 *1170:D 0.00015889
2 *1073:X 0.00015889
3 *1170:D *1073:A 5.5792e-05
4 *1170:D *1170:RESET_B 5.82853e-05
*RES
1 *1073:X *1170:D 49.0243 
*END

*D_NET *71 0.00151682
*CONN
*I *1171:D I *D sky130_fd_sc_hd__dfrtp_1
*I *1075:X O *D sky130_fd_sc_hd__clkbuf_1
*CAP
1 *1171:D 0.000410152
2 *1075:X 6.14408e-05
3 *71:8 0.000471593
4 *1171:D *244:73 0.000265496
5 *1171:D *362:14 2.83509e-05
6 *1171:D *362:27 0.000100477
7 *71:8 *102:64 0.000140875
8 *71:8 *205:10 3.84404e-05
*RES
1 *1075:X *71:8 39.9057 
2 *71:8 *1171:D 46.7207 
*END

*D_NET *72 0.000488443
*CONN
*I *1172:D I *D sky130_fd_sc_hd__dfrtp_1
*I *1077:X O *D sky130_fd_sc_hd__clkbuf_1
*CAP
1 *1172:D 0.000227239
2 *1077:X 0.000227239
3 *1172:D *1172:CLK 3.39646e-05
*RES
1 *1077:X *1172:D 49.0243 
*END

*D_NET *73 0.000972715
*CONN
*I *1173:D I *D sky130_fd_sc_hd__dfrtp_1
*I *1079:X O *D sky130_fd_sc_hd__clkbuf_1
*CAP
1 *1173:D 0.000109744
2 *1079:X 0.000249882
3 *73:10 0.000359627
4 *1173:D *247:32 5.65426e-05
5 *1173:D *247:41 1.44293e-05
6 *73:10 *102:10 1.12863e-05
7 *73:10 *102:108 8.71559e-05
8 *73:10 *247:26 8.4047e-05
*RES
1 *1079:X *73:10 41.7286 
2 *73:10 *1173:D 39.595 
*END

*D_NET *74 0.00117028
*CONN
*I *1174:D I *D sky130_fd_sc_hd__dfrtp_1
*I *1081:X O *D sky130_fd_sc_hd__clkbuf_1
*CAP
1 *1174:D 2.63249e-05
2 *1081:X 0.000360401
3 *74:10 0.000386726
4 *74:10 *113:8 0.000187363
5 *74:10 *126:208 3.62949e-05
6 *74:10 *256:599 0
7 *74:10 *324:120 5.80435e-05
8 *74:10 *360:8 8.57485e-05
9 *30:109 *1174:D 2.93747e-05
*RES
1 *1081:X *74:10 44.7736 
2 *74:10 *1174:D 38.6214 
*END

*D_NET *75 0.000353557
*CONN
*I *1175:D I *D sky130_fd_sc_hd__dfrtp_1
*I *1083:X O *D sky130_fd_sc_hd__clkbuf_1
*CAP
1 *1175:D 0.000128213
2 *1083:X 0.000128213
3 *1175:D *1083:A 4.38266e-05
4 *1175:D *1175:CLK 5.3304e-05
*RES
1 *1083:X *1175:D 48.6929 
*END

*D_NET *76 0.0016354
*CONN
*I *1176:D I *D sky130_fd_sc_hd__dfrtp_1
*I *1085:X O *D sky130_fd_sc_hd__clkbuf_1
*CAP
1 *1176:D 0.000330655
2 *1085:X 0.000340979
3 *76:10 0.000671634
4 *76:10 *256:618 0.000111106
5 *76:10 *256:628 0.000181027
6 *76:10 *299:12 0
*RES
1 *1085:X *76:10 43.5929 
2 *76:10 *1176:D 41.9771 
*END

*D_NET *77 0.000333713
*CONN
*I *1177:D I *D sky130_fd_sc_hd__dfrtp_1
*I *1087:X O *D sky130_fd_sc_hd__clkbuf_1
*CAP
1 *1177:D 0.000115212
2 *1087:X 0.000115212
3 *1177:D *1177:CLK 5.79559e-05
4 *1177:D *270:18 4.53327e-05
*RES
1 *1087:X *1177:D 48.6929 
*END

*D_NET *78 0.0011148
*CONN
*I *1178:D I *D sky130_fd_sc_hd__dfrtp_1
*I *1089:X O *D sky130_fd_sc_hd__clkbuf_1
*CAP
1 *1178:D 0.000114691
2 *1089:X 0.000230222
3 *78:12 0.000344913
4 *78:12 *1089:A 0.00010018
5 *78:12 *283:10 0.000114083
6 *78:12 *319:10 0.000197479
7 *30:34 *78:12 1.32314e-05
8 *30:47 *78:12 0
*RES
1 *1089:X *78:12 43.6343 
2 *78:12 *1178:D 39.5743 
*END

*D_NET *79 0.000771255
*CONN
*I *1180:D I *D sky130_fd_sc_hd__dfrtp_1
*I *1093:X O *D sky130_fd_sc_hd__clkbuf_1
*CAP
1 *1180:D 0.000192773
2 *1093:X 7.05203e-05
3 *79:8 0.000263293
4 *1180:D *247:127 3.26241e-05
5 *79:8 *93:232 0.000170917
6 *79:8 *215:8 4.11274e-05
*RES
1 *1093:X *79:8 40.2579 
2 *79:8 *1180:D 41.48 
*END

*D_NET *80 0.000364415
*CONN
*I *1181:D I *D sky130_fd_sc_hd__dfrtp_1
*I *1096:X O *D sky130_fd_sc_hd__clkbuf_1
*CAP
1 *1181:D 0.00011679
2 *1096:X 0.00011679
3 *1181:D *1181:CLK 5.58003e-05
4 *1181:D *1181:RESET_B 7.50355e-05
*RES
1 *1096:X *1181:D 48.5479 
*END

*D_NET *81 0.000935789
*CONN
*I *1182:D I *D sky130_fd_sc_hd__dfrtp_1
*I *1098:X O *D sky130_fd_sc_hd__clkbuf_1
*CAP
1 *1182:D 0.000389894
2 *1098:X 7.8e-05
3 *81:8 0.000467894
*RES
1 *1098:X *81:8 39.2014 
2 *81:8 *1182:D 43.075 
*END

*D_NET *82 0.000212509
*CONN
*I *1183:D I *D sky130_fd_sc_hd__dfrtp_4
*I *1103:X O *D sky130_fd_sc_hd__clkbuf_1
*CAP
1 *1183:D 1.47919e-05
2 *1103:X 6.55146e-05
3 *82:8 8.03064e-05
4 *1183:D *247:12 1.10317e-05
5 *82:8 *222:10 4.08641e-05
*RES
1 *1103:X *82:8 39.2014 
2 *82:8 *1183:D 38.2123 
*END

*D_NET *83 0.000660327
*CONN
*I *1184:D I *D sky130_fd_sc_hd__dfrtp_1
*I *1108:X O *D sky130_fd_sc_hd__o211a_1
*CAP
1 *1184:D 0
2 *1108:X 0.000299267
3 *83:10 0.000299267
4 *83:10 *1108:B1 5.82853e-05
5 *83:10 *247:127 3.50862e-06
*RES
1 *1108:X *83:10 43.3443 
2 *83:10 *1184:D 38 
*END

*D_NET *84 0.000824331
*CONN
*I *1185:D I *D sky130_fd_sc_hd__dfrtp_1
*I *1111:Y O *D sky130_fd_sc_hd__a21oi_1
*CAP
1 *1185:D 0
2 *1111:Y 0.000279556
3 *84:12 0.000279556
4 *84:12 *1110:A 1.9054e-05
5 *84:12 *1111:A2 3.26241e-05
6 *84:12 *1111:B1 7.61229e-06
7 *84:12 *126:265 0.000188526
8 *84:12 *227:12 1.7403e-05
*RES
1 *1111:Y *84:12 43.1579 
2 *84:12 *1185:D 38 
*END

*D_NET *85 0.00108577
*CONN
*I *1187:D I *D sky130_fd_sc_hd__dfrtp_1
*I *1113:Y O *D sky130_fd_sc_hd__nand2_1
*CAP
1 *1187:D 3.26089e-05
2 *1113:Y 0.000259251
3 *85:10 0.000291859
4 *1187:D *964:A1 0.000141347
5 *1187:D *115:14 8.26478e-05
6 *85:10 *1203:A 0.000230718
7 *85:10 *134:26 4.73379e-05
*RES
1 *1113:Y *85:10 42.0807 
2 *85:10 *1187:D 39.5743 
*END

*D_NET *86 0.000552268
*CONN
*I *1188:D I *D sky130_fd_sc_hd__dfrtp_1
*I *1115:Y O *D sky130_fd_sc_hd__nand2_1
*CAP
1 *1188:D 0
2 *1115:Y 0.000157237
3 *86:10 0.000157237
4 *86:10 *1115:A 5.41385e-05
5 *86:10 *98:18 1.14762e-05
6 *86:10 *127:20 2.77955e-05
7 *86:10 *127:22 8.62876e-05
8 *86:10 *214:12 5.80963e-05
*RES
1 *1115:Y *86:10 41.1279 
2 *86:10 *1188:D 38 
*END

*D_NET *87 0.000611458
*CONN
*I *1189:D I *D sky130_fd_sc_hd__dfrtp_1
*I *1118:X O *D sky130_fd_sc_hd__clkbuf_1
*CAP
1 *1189:D 9.43449e-05
2 *1118:X 5.42001e-05
3 *87:8 0.000148545
4 *1189:D *1189:RESET_B 0.000102093
5 *87:8 *102:64 0.000141888
6 *87:8 *232:10 7.03869e-05
*RES
1 *1118:X *87:8 39.9057 
2 *87:8 *1189:D 40.0507 
*END

*D_NET *88 0.00155576
*CONN
*I *1190:D I *D sky130_fd_sc_hd__dfrtp_1
*I *1121:X O *D sky130_fd_sc_hd__clkbuf_1
*CAP
1 *1190:D 0.000280175
2 *1121:X 0.000265316
3 *88:10 0.000545491
4 *1190:D *99:69 0.000107447
5 *88:10 *98:53 0.000271584
6 *88:10 *377:27 8.57485e-05
*RES
1 *1121:X *88:10 42.205 
2 *88:10 *1190:D 41.9771 
*END

*D_NET *89 0.00141253
*CONN
*I *1191:D I *D sky130_fd_sc_hd__dfrtp_1
*I *1124:X O *D sky130_fd_sc_hd__clkbuf_1
*CAP
1 *1191:D 0.000136566
2 *1124:X 0.000293699
3 *89:10 0.000430265
4 *1191:D *1191:CLK 0.000128096
5 *89:10 *932:B1 8.62876e-05
6 *89:10 *1124:A 0.000139764
7 *89:10 *97:33 5.33597e-05
8 *89:10 *246:10 8.29264e-05
9 *89:10 *246:23 6.15719e-05
*RES
1 *1124:X *89:10 42.9093 
2 *89:10 *1191:D 41.0036 
*END

*D_NET *90 0.000394136
*CONN
*I *1192:D I *D sky130_fd_sc_hd__dfrtp_4
*I *1125:X O *D sky130_fd_sc_hd__xor2_1
*CAP
1 *1192:D 0.000154148
2 *1125:X 0.000154148
3 *1192:D *242:99 8.58395e-05
*RES
1 *1125:X *1192:D 49.19 
*END

*D_NET *91 0.00225851
*CONN
*I *1193:D I *D sky130_fd_sc_hd__dfrtp_4
*I *1127:Y O *D sky130_fd_sc_hd__nor2_1
*CAP
1 *1193:D 0.000100003
2 *1127:Y 0.000611651
3 *91:16 0.000711654
4 *1193:D *325:8 3.46302e-05
5 *91:16 *920:A 5.3304e-05
6 *91:16 *920:C 8.61988e-05
7 *91:16 *1127:A 2.19403e-05
8 *91:16 *1127:B 0.000188526
9 *91:16 *1128:B 5.14746e-06
10 *91:16 *93:133 4.88671e-05
11 *91:16 *94:17 1.14876e-05
12 *91:16 *242:57 0.000137754
13 *91:16 *301:16 9.67842e-05
14 *91:16 *326:18 4.35829e-05
15 *91:16 *326:26 3.0415e-05
16 *28:21 *91:16 7.65699e-05
*RES
1 *1127:Y *91:16 49.9521 
2 *91:16 *1193:D 39.595 
*END

*D_NET *92 0.000799606
*CONN
*I *1194:D I *D sky130_fd_sc_hd__dfrtp_4
*I *1129:Y O *D sky130_fd_sc_hd__nor2_1
*CAP
1 *1194:D 3.06838e-05
2 *1129:Y 0.000205198
3 *92:10 0.000235882
4 *1194:D *93:141 4.39278e-05
5 *1194:D *326:18 0.000141954
6 *92:10 *93:141 0
7 *92:10 *95:8 0.00014196
*RES
1 *1129:Y *92:10 41.1279 
2 *92:10 *1194:D 39.5743 
*END

*D_NET *93 0.0402925
*CONN
*I *991:A1 I *D sky130_fd_sc_hd__a21o_1
*I *986:C1 I *D sky130_fd_sc_hd__o221a_2
*I *1002:A1 I *D sky130_fd_sc_hd__a21o_1
*I *997:C1 I *D sky130_fd_sc_hd__o221a_2
*I *920:A I *D sky130_fd_sc_hd__and3_1
*I *974:C1 I *D sky130_fd_sc_hd__o221a_2
*I *1125:A I *D sky130_fd_sc_hd__xor2_1
*I *1047:A2 I *D sky130_fd_sc_hd__a21o_1
*I *1126:A1 I *D sky130_fd_sc_hd__a21oi_1
*I *1014:C1 I *D sky130_fd_sc_hd__o221a_2
*I *1031:C1 I *D sky130_fd_sc_hd__o221a_2
*I *1019:A1 I *D sky130_fd_sc_hd__a21o_1
*I *1036:A1 I *D sky130_fd_sc_hd__a21o_1
*I *919:X O *D sky130_fd_sc_hd__buf_4
*CAP
1 *991:A1 0
2 *986:C1 0
3 *1002:A1 4.67523e-05
4 *997:C1 0
5 *920:A 2.77218e-05
6 *974:C1 0.000153252
7 *1125:A 0
8 *1047:A2 0.000192147
9 *1126:A1 0
10 *1014:C1 0
11 *1031:C1 0.000331152
12 *1019:A1 0
13 *1036:A1 0
14 *919:X 0.000124403
15 *93:277 0.000365822
16 *93:265 0.000722112
17 *93:249 0.00140837
18 *93:232 0.00176726
19 *93:219 0.00161628
20 *93:213 0.00306904
21 *93:172 0.000546612
22 *93:162 0.00104262
23 *93:141 0.00160356
24 *93:133 0.00137177
25 *93:122 0.000669676
26 *93:112 0.00133207
27 *93:100 0.0037638
28 *93:87 5.20086e-05
29 *93:81 0.0011398
30 *93:62 0.00104502
31 *93:54 0.00101087
32 *93:42 0.000722402
33 *93:30 0.00069794
34 *93:18 0.000983035
35 *93:12 0.000564407
36 *93:8 0.00036128
37 *920:A *326:26 2.64616e-05
38 *1031:C1 *1026:A 8.52481e-05
39 *1031:C1 *1031:A1 4.00259e-06
40 *1031:C1 *1031:B2 1.37232e-05
41 *1031:C1 *179:6 5.47808e-05
42 *1031:C1 *347:6 0.000321606
43 *1047:A2 *1047:B1 5.79559e-05
44 *1047:A2 *250:14 0.000187008
45 *1047:A2 *255:22 3.22467e-05
46 *1047:A2 *255:35 4.9486e-05
47 *93:8 *240:94 0
48 *93:8 *256:189 0
49 *93:18 *249:27 0.000435014
50 *93:18 *256:189 2.24048e-05
51 *93:30 *1019:A2 3.85722e-05
52 *93:30 *1036:A2 1.24376e-05
53 *93:30 *1036:B1 1.57571e-05
54 *93:30 *249:10 0.000513606
55 *93:30 *256:222 0
56 *93:30 *269:8 0
57 *93:30 *272:12 2.73254e-05
58 *93:54 *1013:A1 9.91024e-05
59 *93:54 *1013:B1 0
60 *93:54 *172:10 8.89913e-06
61 *93:54 *249:27 0.000148204
62 *93:54 *249:37 1.00941e-05
63 *93:54 *256:189 8.94394e-05
64 *93:62 *1150:RESET_B 0
65 *93:62 *256:189 0
66 *93:62 *256:222 0.000813509
67 *93:62 *269:8 1.14452e-05
68 *93:62 *320:22 0
69 *93:62 *341:22 0.000215628
70 *93:62 *341:37 1.98991e-05
71 *93:81 *1012:C1 3.52659e-05
72 *93:81 *1014:A1 2.93335e-05
73 *93:81 *168:27 0.000175903
74 *93:81 *171:10 7.34872e-05
75 *93:81 *173:14 3.42479e-05
76 *93:81 *256:189 0.000114092
77 *93:87 *319:20 3.36312e-06
78 *93:87 *320:47 2.8183e-05
79 *93:100 *1012:A1 2.18409e-05
80 *93:100 *1064:A0 6.82416e-05
81 *93:100 *1165:CLK 9.67842e-05
82 *93:100 *126:26 9.67756e-05
83 *93:100 *126:32 5.3304e-05
84 *93:100 *171:10 0.000353434
85 *93:100 *256:169 0.000355029
86 *93:112 *1168:CLK 1.58805e-05
87 *93:112 *240:10 6.80747e-05
88 *93:112 *240:125 6.6869e-05
89 *93:112 *253:58 0
90 *93:112 *287:21 0.000130018
91 *93:112 *295:10 0.000195034
92 *93:112 *325:14 3.50862e-06
93 *93:112 *325:50 7.80007e-05
94 *93:112 *369:8 4.90891e-05
95 *93:122 *324:32 0.000312459
96 *93:122 *325:12 2.65505e-05
97 *93:122 *326:36 7.33916e-05
98 *93:133 *237:8 4.16051e-06
99 *93:133 *242:46 0.000228676
100 *93:133 *242:57 6.45006e-05
101 *93:133 *301:29 6.45006e-05
102 *93:133 *324:32 5.5792e-05
103 *93:133 *326:18 6.2088e-05
104 *93:141 *1194:RESET_B 2.86109e-05
105 *93:141 *242:46 0.000166425
106 *93:141 *326:8 1.51718e-05
107 *93:141 *326:18 0.000166672
108 *93:141 *326:111 2.28276e-05
109 *93:162 *326:111 0.000136081
110 *93:172 *1157:RESET_B 0.000184262
111 *93:172 *256:77 6.35755e-05
112 *93:172 *262:18 0.000368089
113 *93:213 *946:B 5.44006e-05
114 *93:213 *948:B1 0
115 *93:213 *951:A2 4.04176e-05
116 *93:213 *1168:CLK 8.82421e-05
117 *93:213 *102:54 0
118 *93:213 *102:64 0
119 *93:213 *107:16 3.05943e-05
120 *93:213 *110:10 0.000352993
121 *93:213 *111:8 4.69696e-05
122 *93:213 *122:12 0
123 *93:213 *123:10 0.000509887
124 *93:213 *126:32 0
125 *93:213 *232:10 0
126 *93:213 *253:22 0
127 *93:213 *324:81 0
128 *93:213 *365:10 0.000261951
129 *93:213 *369:8 5.93278e-05
130 *93:213 *375:34 3.50862e-06
131 *93:213 *376:8 0
132 *93:219 *102:43 0
133 *93:219 *102:54 0
134 *93:219 *107:16 9.56378e-05
135 *93:219 *245:63 0
136 *93:219 *284:19 3.76854e-05
137 *93:219 *314:28 3.50862e-06
138 *93:219 *330:8 0
139 *93:232 *997:B2 1.02482e-05
140 *93:232 *1093:A 5.82853e-05
141 *93:232 *160:10 5.55743e-06
142 *93:232 *214:12 5.27824e-05
143 *93:232 *307:10 0.000169556
144 *93:249 *307:10 0.000447976
145 *93:249 *314:14 0.00240983
146 *93:265 *991:A2 5.88116e-05
147 *93:265 *314:12 0.000167119
148 *93:265 *314:14 0.000228909
149 *93:277 *986:A1 5.58003e-05
150 *93:277 *986:B2 5.82853e-05
151 *93:277 *1136:CLK 4.04496e-05
152 *93:277 *152:10 1.0092e-05
153 *93:277 *281:29 0
154 *93:277 *312:8 0
155 *93:277 *327:25 0
156 *1194:D *93:141 4.39278e-05
157 *1255:A *93:30 6.16531e-05
158 *36:14 *93:277 8.0033e-05
159 *51:10 *93:30 0
160 *57:10 *1047:A2 8.29264e-05
161 *57:10 *93:162 5.3835e-05
162 *60:8 *93:62 3.44447e-05
163 *67:8 *93:213 6.90927e-05
164 *79:8 *93:232 0.000170917
165 *91:16 *920:A 5.3304e-05
166 *91:16 *93:133 4.88671e-05
167 *92:10 *93:141 0
*RES
1 *919:X *93:8 40.61 
2 *93:8 *93:12 18.9564 
3 *93:12 *93:18 36.4836 
4 *93:18 *93:30 43.9821 
5 *93:30 *1036:A1 23 
6 *93:18 *1019:A1 23 
7 *93:12 *93:42 0.621429 
8 *93:42 *93:54 35.3236 
9 *93:54 *93:62 44.7279 
10 *93:62 *1031:C1 30.1879 
11 *93:42 *93:81 37.4364 
12 *93:81 *93:87 30.8493 
13 *93:87 *1014:C1 23 
14 *93:81 *93:100 30.9086 
15 *93:100 *93:112 47.9593 
16 *93:112 *93:122 21.525 
17 *93:122 *1126:A1 23 
18 *93:122 *93:133 21.0486 
19 *93:133 *93:141 46.3229 
20 *93:141 *1047:A2 42.4536 
21 *93:141 *93:162 22.685 
22 *93:162 *93:172 42.6564 
23 *93:172 *1125:A 23 
24 *93:162 *974:C1 25.5271 
25 *93:133 *920:A 38.6214 
26 *93:100 *93:213 45.5818 
27 *93:213 *93:219 31.7889 
28 *93:219 *997:C1 23 
29 *93:219 *93:232 27.6875 
30 *93:232 *1002:A1 38.6732 
31 *93:232 *93:249 42.7675 
32 *93:249 *93:265 38.9589 
33 *93:265 *93:277 37.1671 
34 *93:277 *986:C1 23 
35 *93:265 *991:A1 23 
*END

*D_NET *94 0.00246632
*CONN
*I *1128:B I *D sky130_fd_sc_hd__nor2_1
*I *921:B I *D sky130_fd_sc_hd__and2_1
*I *1127:A I *D sky130_fd_sc_hd__nor2_1
*I *920:X O *D sky130_fd_sc_hd__and3_1
*CAP
1 *1128:B 0.000463576
2 *921:B 2.39023e-05
3 *1127:A 9.48117e-05
4 *920:X 0
5 *94:17 0.000664038
6 *94:4 0.000271371
7 *1127:A *920:B 6.10741e-05
8 *1127:A *1048:A1 5.5792e-05
9 *1127:A *1127:B 9.91548e-05
10 *1127:A *301:16 1.79959e-05
11 *1128:B *1129:B 1.35714e-05
12 *1128:B *95:8 3.22437e-05
13 *1128:B *238:10 2.66101e-05
14 *1128:B *326:100 3.28357e-06
15 *94:17 *920:B 9.66585e-05
16 *94:17 *1127:B 1.73995e-05
17 *94:17 *326:18 5.3304e-05
18 *94:17 *326:26 0.000175903
19 *1129:A *921:B 1.92324e-05
20 *1129:A *1128:B 3.28357e-06
21 *28:6 *1128:B 0.000234542
22 *91:16 *1127:A 2.19403e-05
23 *91:16 *1128:B 5.14746e-06
24 *91:16 *94:17 1.14876e-05
*RES
1 *920:X *94:4 23 
2 *94:4 *1127:A 26.045 
3 *94:4 *94:17 3.48 
4 *94:17 *921:B 23.8493 
5 *94:17 *1128:B 31.3271 
*END

*D_NET *95 0.000744356
*CONN
*I *922:A I *D sky130_fd_sc_hd__clkbuf_1
*I *921:X O *D sky130_fd_sc_hd__and2_1
*CAP
1 *922:A 0
2 *921:X 0.000142164
3 *95:8 0.000142164
4 *95:8 *1129:B 0.000100477
5 *95:8 *238:10 5.50106e-05
6 *1128:B *95:8 3.22437e-05
7 *1129:A *95:8 0.000102971
8 *28:6 *95:8 2.73653e-05
9 *92:10 *95:8 0.00014196
*RES
1 *921:X *95:8 27.4536 
2 *95:8 *922:A 23 
*END

*D_NET *96 0.000773835
*CONN
*I *932:A2 I *D sky130_fd_sc_hd__a211o_1
*I *923:Y O *D sky130_fd_sc_hd__inv_2
*CAP
1 *932:A2 0
2 *923:Y 0.000295704
3 *96:8 0.000295704
4 *96:8 *932:B1 5.3304e-05
5 *96:8 *1124:A 0.000129123
*RES
1 *923:Y *96:8 27.93 
2 *96:8 *932:A2 23 
*END

*D_NET *97 0.00519044
*CONN
*I *1122:B1 I *D sky130_fd_sc_hd__a21oi_1
*I *967:A1 I *D sky130_fd_sc_hd__o2111a_2
*I *932:B1 I *D sky130_fd_sc_hd__a211o_1
*I *924:Y O *D sky130_fd_sc_hd__inv_2
*CAP
1 *1122:B1 0
2 *967:A1 0.000426019
3 *932:B1 0.000332546
4 *924:Y 0.000450663
5 *97:33 0.000811531
6 *97:8 0.00116872
7 *932:B1 *1124:A 5.3304e-05
8 *932:B1 *102:112 0
9 *932:B1 *126:177 7.13256e-05
10 *932:B1 *355:31 0.000172358
11 *967:A1 *956:A 0.000143655
12 *967:A1 *1122:A1 0.000184409
13 *967:A1 *1122:A2 0.000246503
14 *97:8 *924:A 3.22879e-05
15 *97:33 *1174:CLK 6.74953e-05
16 *97:33 *1191:RESET_B 0.000163343
17 *97:33 *126:187 0.000347551
18 *97:33 *246:23 9.48534e-05
19 *97:33 *355:31 8.82507e-05
20 *30:82 *967:A1 3.06911e-05
21 *30:82 *97:33 2.1369e-05
22 *30:98 *932:B1 9.4798e-06
23 *30:109 *97:33 8.11349e-05
24 *89:10 *932:B1 8.62876e-05
25 *89:10 *97:33 5.33597e-05
26 *96:8 *932:B1 5.3304e-05
*RES
1 *924:Y *97:8 43.3857 
2 *97:8 *932:B1 43.8829 
3 *97:8 *97:33 25.1707 
4 *97:33 *967:A1 33.0257 
5 *97:33 *1122:B1 23 
*END

*D_NET *98 0.020569
*CONN
*I *931:A1 I *D sky130_fd_sc_hd__a221o_1
*I *1101:B1 I *D sky130_fd_sc_hd__o21ai_1
*I *1100:A I *D sky130_fd_sc_hd__or3_1
*I *935:A1 I *D sky130_fd_sc_hd__a221oi_2
*I *948:A1 I *D sky130_fd_sc_hd__o21ai_1
*I *947:A1 I *D sky130_fd_sc_hd__a2111o_1
*I *959:A1 I *D sky130_fd_sc_hd__a2111oi_1
*I *944:A1 I *D sky130_fd_sc_hd__o21ai_1
*I *951:A1 I *D sky130_fd_sc_hd__a2111o_2
*I *925:Y O *D sky130_fd_sc_hd__inv_2
*CAP
1 *931:A1 7.96515e-05
2 *1101:B1 9.68157e-05
3 *1100:A 0
4 *935:A1 8.43772e-05
5 *948:A1 0.000381565
6 *947:A1 0
7 *959:A1 0
8 *944:A1 7.55876e-05
9 *951:A1 0.000286961
10 *925:Y 0
11 *98:144 0.00156516
12 *98:122 0.000199623
13 *98:82 0.0002461
14 *98:59 0.00041624
15 *98:53 0.000707947
16 *98:38 0.00127659
17 *98:30 0.0015625
18 *98:18 0.00123647
19 *98:10 0.000623578
20 *98:8 0.000785669
21 *98:4 0.0020978
22 *931:A1 *931:A2 0.000118426
23 *931:A1 *931:B1 4.47912e-05
24 *931:A1 *371:18 0.000182222
25 *935:A1 *935:A2 0.000102551
26 *935:A1 *936:A 4.44894e-05
27 *935:A1 *1203:A 0.000183547
28 *935:A1 *239:22 0.000100061
29 *944:A1 *944:A2 5.67058e-05
30 *944:A1 *944:B1 2.18506e-05
31 *948:A1 *948:A2 5.79559e-05
32 *948:A1 *948:B1 5.79559e-05
33 *948:A1 *1119:A1 1.97956e-05
34 *948:A1 *121:10 2.93335e-05
35 *951:A1 *124:10 5.81185e-05
36 *1101:B1 *1101:A1 7.1813e-06
37 *1101:B1 *219:22 3.27248e-05
38 *1101:B1 *219:28 8.17328e-05
39 *1101:B1 *355:61 5.50106e-05
40 *98:8 *1101:A1 2.7418e-05
41 *98:8 *355:53 5.56356e-05
42 *98:8 *355:61 0.000969414
43 *98:10 *219:28 1.24376e-05
44 *98:18 *1115:A 5.41385e-05
45 *98:18 *127:28 0.00016885
46 *98:18 *214:12 7.41953e-05
47 *98:30 *108:29 9.5956e-06
48 *98:30 *115:22 1.47795e-05
49 *98:30 *115:28 8.06804e-06
50 *98:30 *116:10 7.67405e-05
51 *98:30 *116:18 0.000110116
52 *98:30 *124:31 0.000246757
53 *98:30 *127:28 0.000340078
54 *98:30 *137:10 0
55 *98:30 *214:12 6.12479e-05
56 *98:30 *239:18 0.000619917
57 *98:30 *253:44 0
58 *98:38 *1190:RESET_B 8.88885e-05
59 *98:38 *116:18 3.58553e-05
60 *98:38 *126:113 3.82553e-05
61 *98:38 *233:8 0.000113153
62 *98:38 *239:55 0
63 *98:38 *253:44 0
64 *98:38 *256:471 0.000129647
65 *98:53 *1121:A 0.000102971
66 *98:53 *1181:RESET_B 0.000125983
67 *98:53 *1276:A 0.000145163
68 *98:53 *120:16 0.000153618
69 *98:59 *118:12 6.90927e-05
70 *98:59 *367:36 2.34077e-05
71 *98:82 *944:A2 0.000128723
72 *98:82 *946:A 1.5769e-05
73 *98:82 *947:B1 7.8033e-05
74 *98:82 *959:A2 0.000162237
75 *98:82 *117:10 0.000139346
76 *98:82 *118:25 5.84443e-05
77 *98:82 *367:36 0.000108227
78 *98:122 *127:20 0
79 *98:122 *127:22 0
80 *98:122 *127:28 0
81 *98:122 *127:69 0.000195238
82 *98:122 *219:28 1.12487e-05
83 *98:122 *219:45 1.37349e-05
84 *98:122 *230:10 2.22183e-05
85 *98:144 *923:A 0
86 *98:144 *1238:A 6.5117e-06
87 *98:144 *99:51 9.13566e-05
88 *98:144 *99:59 4.41821e-06
89 *98:144 *126:198 0
90 *98:144 *126:228 0
91 *98:144 *167:10 0.000589182
92 *98:144 *326:126 0.00130085
93 *98:144 *355:17 1.12487e-05
94 *98:144 *355:31 2.12195e-05
95 *98:144 *355:53 0.000475473
96 *86:10 *98:18 1.14762e-05
97 *88:10 *98:53 0.000271584
*RES
1 *925:Y *98:4 23 
2 *98:4 *98:8 13.7336 
3 *98:8 *98:10 1.09786 
4 *98:10 *98:18 21.7114 
5 *98:18 *98:30 48.56 
6 *98:30 *98:38 22.6021 
7 *98:38 *951:A1 26.48 
8 *98:38 *98:53 28.2157 
9 *98:53 *98:59 17.4029 
10 *98:59 *944:A1 24.595 
11 *98:59 *98:82 36.6493 
12 *98:82 *959:A1 23 
13 *98:53 *947:A1 38 
14 *98:30 *948:A1 44.3593 
15 *98:18 *935:A1 41.0036 
16 *98:10 *98:122 33.9357 
17 *98:122 *1100:A 23 
18 *98:8 *1101:B1 25.6929 
19 *98:4 *98:144 47.8943 
20 *98:144 *931:A1 40.5479 
*END

*D_NET *99 0.0245606
*CONN
*I *1108:A1 I *D sky130_fd_sc_hd__o211a_1
*I *1105:B I *D sky130_fd_sc_hd__nand2_1
*I *1106:B I *D sky130_fd_sc_hd__or2_1
*I *933:A I *D sky130_fd_sc_hd__inv_2
*I *940:B I *D sky130_fd_sc_hd__xnor2_1
*I *927:A I *D sky130_fd_sc_hd__or2_1
*I *928:A I *D sky130_fd_sc_hd__nand2_1
*I *949:A I *D sky130_fd_sc_hd__xor2_1
*I *945:A I *D sky130_fd_sc_hd__xor2_1
*I *1086:A1 I *D sky130_fd_sc_hd__mux2_1
*I *926:X O *D sky130_fd_sc_hd__clkbuf_4
*CAP
1 *1108:A1 0
2 *1105:B 0
3 *1106:B 5.9208e-05
4 *933:A 0.000398529
5 *940:B 8.3703e-05
6 *927:A 0
7 *928:A 2.18824e-05
8 *949:A 0.00017254
9 *945:A 0.00016211
10 *1086:A1 0
11 *926:X 0.000163246
12 *99:138 0.000585941
13 *99:134 0.000458135
14 *99:124 0.00125361
15 *99:69 0.0016769
16 *99:59 0.00167991
17 *99:51 0.000416847
18 *99:47 0.00165946
19 *99:35 0.00238964
20 *99:22 0.00205013
21 *99:8 0.00238951
22 *933:A *1248:A 0.000229801
23 *933:A *106:10 3.24692e-05
24 *933:A *214:12 0.000439095
25 *933:A *361:12 0.000441326
26 *940:B *940:A 0.000100061
27 *940:B *282:10 5.43448e-05
28 *945:A *945:B 1.32314e-05
29 *945:A *946:A 2.4754e-05
30 *945:A *126:113 0.000165384
31 *949:A *1068:A0 1.1258e-05
32 *949:A *119:14 0.000278204
33 *949:A *325:50 0.0004821
34 *1106:B *214:12 0.000166522
35 *1106:B *361:12 0.000155077
36 *99:22 *1086:A0 3.22051e-05
37 *99:22 *1135:RESET_B 4.70852e-05
38 *99:22 *1136:RESET_B 8.40645e-05
39 *99:22 *1245:A 0.00023387
40 *99:22 *102:10 0.00014119
41 *99:22 *126:242 0.000337202
42 *99:22 *211:10 2.83387e-05
43 *99:22 *247:49 0.000362289
44 *99:22 *256:656 0.000479076
45 *99:22 *256:668 0.000156605
46 *99:22 *328:6 0.000100477
47 *99:35 *1086:A0 0.000106808
48 *99:35 *270:16 0.00057305
49 *99:35 *282:10 0.00013986
50 *99:47 *940:A 6.47558e-05
51 *99:47 *1161:CLK 5.58003e-05
52 *99:47 *1161:RESET_B 9.99687e-05
53 *99:47 *1238:A 5.3304e-05
54 *99:47 *256:10 0
55 *99:47 *256:589 0
56 *99:47 *256:599 0
57 *99:47 *270:8 0
58 *99:47 *359:10 0.000105561
59 *99:47 *370:8 0.000501683
60 *99:51 *1238:A 0.000101014
61 *99:51 *262:18 0.000116366
62 *99:59 *126:161 0.000124884
63 *99:59 *262:18 0.000112396
64 *99:59 *326:126 2.47992e-05
65 *99:69 *1190:CLK 0.000145163
66 *99:69 *1190:RESET_B 9.13419e-05
67 *99:69 *126:113 0.000190742
68 *99:69 *377:8 0.000192123
69 *99:124 *247:103 0.000154892
70 *99:124 *247:115 2.10502e-05
71 *99:134 *102:30 5.50049e-05
72 *99:134 *127:20 7.39816e-05
73 *99:134 *139:65 6.94189e-05
74 *99:134 *219:45 0
75 *99:134 *355:92 0.000164291
76 *99:138 *102:30 0.000267173
77 *1135:D *99:22 3.71887e-05
78 *1190:D *99:69 0.000107447
79 *30:119 *99:35 0.000497435
80 *98:144 *99:51 9.13566e-05
81 *98:144 *99:59 4.41821e-06
*RES
1 *926:X *99:8 40.9621 
2 *99:8 *99:22 45.2429 
3 *99:22 *1086:A1 23 
4 *99:22 *99:35 37.0607 
5 *99:35 *99:47 47.6664 
6 *99:47 *99:51 17.9621 
7 *99:51 *99:59 21.0071 
8 *99:59 *99:69 40.665 
9 *99:69 *945:A 41.7286 
10 *99:69 *949:A 44.3593 
11 *99:59 *928:A 23.4971 
12 *99:51 *927:A 38 
13 *99:35 *940:B 40.0507 
14 *99:8 *99:124 43.0086 
15 *99:124 *99:134 22.1671 
16 *99:134 *99:138 18.0036 
17 *99:138 *933:A 49.165 
18 *99:138 *1106:B 40.2579 
19 *99:134 *1105:B 23 
20 *99:124 *1108:A1 38 
*END

*D_NET *100 0.000583145
*CONN
*I *931:B1 I *D sky130_fd_sc_hd__a221o_1
*I *927:X O *D sky130_fd_sc_hd__or2_1
*CAP
1 *931:B1 9.65148e-05
2 *927:X 9.65148e-05
3 *931:B1 *931:A2 0.000118426
4 *931:B1 *262:12 0.000226899
5 *931:A1 *931:B1 4.47912e-05
*RES
1 *927:X *931:B1 49.0243 
*END

*D_NET *101 0.000322357
*CONN
*I *931:B2 I *D sky130_fd_sc_hd__a221o_1
*I *928:Y O *D sky130_fd_sc_hd__nand2_1
*CAP
1 *931:B2 2.19814e-05
2 *928:Y 7.04386e-05
3 *101:8 9.242e-05
4 *931:B2 *262:12 1.43177e-05
5 *101:8 *103:10 6.70389e-05
6 *101:8 *126:177 1.50326e-05
7 *101:8 *371:18 4.11274e-05
*RES
1 *928:Y *101:8 39.9057 
2 *101:8 *931:B2 38.3314 
*END

*D_NET *102 0.0232331
*CONN
*I *939:B I *D sky130_fd_sc_hd__xnor2_1
*I *930:A I *D sky130_fd_sc_hd__xor2_1
*I *946:A I *D sky130_fd_sc_hd__xor2_1
*I *1109:B1 I *D sky130_fd_sc_hd__o31ai_1
*I *1110:A I *D sky130_fd_sc_hd__or4_1
*I *937:A I *D sky130_fd_sc_hd__or2b_1
*I *950:A I *D sky130_fd_sc_hd__xor2_1
*I *934:B I *D sky130_fd_sc_hd__and2b_1
*I *1088:A1 I *D sky130_fd_sc_hd__mux2_1
*I *929:X O *D sky130_fd_sc_hd__clkbuf_4
*CAP
1 *939:B 0
2 *930:A 0
3 *946:A 0.000953295
4 *1109:B1 7.1968e-05
5 *1110:A 0.000337302
6 *937:A 0
7 *950:A 0
8 *934:B 0
9 *1088:A1 0.000746256
10 *929:X 0.000316207
11 *102:120 0.00130518
12 *102:112 0.00148202
13 *102:108 0.00182
14 *102:64 0.000998336
15 *102:54 0.00132044
16 *102:43 0.000472939
17 *102:30 0.00185601
18 *102:18 0.00129622
19 *102:16 0.000741021
20 *102:10 0.00167512
21 *946:A *944:A2 4.6595e-05
22 *946:A *944:B1 0.000271476
23 *946:A *945:B 0.000139352
24 *946:A *946:B 3.85196e-05
25 *946:A *117:10 3.46673e-05
26 *946:A *118:6 0.000393281
27 *946:A *118:25 0.000355029
28 *1088:A1 *1020:A0 0.000141954
29 *1088:A1 *1020:S 0.000528025
30 *1088:A1 *1076:S 4.04206e-05
31 *1088:A1 *206:10 0.000232185
32 *1088:A1 *279:6 0.000182832
33 *1109:B1 *139:55 1.72227e-05
34 *1109:B1 *227:12 5.3304e-05
35 *1110:A *1107:B1 2.39231e-05
36 *1110:A *1110:B 0.000100486
37 *1110:A *1110:C 8.93708e-05
38 *1110:A *1111:A2 5.55743e-06
39 *1110:A *126:265 0.000105692
40 *1110:A *139:79 0.000196872
41 *1110:A *219:77 5.58003e-05
42 *102:10 *247:26 1.12919e-05
43 *102:10 *247:97 8.21731e-05
44 *102:16 *227:12 0.000174671
45 *102:30 *1020:A0 0.000441978
46 *102:30 *1107:B1 0
47 *102:30 *1211:A 9.84794e-05
48 *102:30 *139:47 4.9224e-05
49 *102:30 *139:79 1.65305e-05
50 *102:30 *224:10 0.0002246
51 *102:30 *284:19 8.76309e-05
52 *102:30 *355:84 0.00030894
53 *102:43 *245:8 0
54 *102:43 *324:81 8.76088e-05
55 *102:43 *330:8 0
56 *102:54 *1188:RESET_B 6.9805e-05
57 *102:54 *205:10 0
58 *102:54 *324:81 0
59 *102:54 *363:38 0.000104094
60 *102:64 *1117:A 0.000228001
61 *102:64 *111:8 8.07477e-05
62 *102:64 *205:10 0
63 *102:64 *232:10 0.000109525
64 *102:64 *324:81 0
65 *102:108 *112:12 4.61596e-05
66 *102:108 *247:8 0.000372793
67 *102:108 *247:26 0.00012277
68 *102:108 *374:25 0.00037141
69 *102:112 *126:187 0.000114092
70 *102:112 *246:10 0
71 *102:112 *246:23 0
72 *102:112 *246:38 0
73 *102:112 *372:12 3.67392e-05
74 *102:120 *243:35 0
75 *932:B1 *102:112 0
76 *945:A *946:A 2.4754e-05
77 *30:34 *1088:A1 1.59071e-05
78 *30:47 *1088:A1 7.87147e-05
79 *30:90 *102:112 0.000550195
80 *30:98 *102:112 0
81 *71:8 *102:64 0.000140875
82 *73:10 *102:10 1.12863e-05
83 *73:10 *102:108 8.71559e-05
84 *84:12 *1110:A 1.9054e-05
85 *87:8 *102:64 0.000141888
86 *93:213 *102:54 0
87 *93:213 *102:64 0
88 *93:219 *102:43 0
89 *93:219 *102:54 0
90 *98:82 *946:A 1.5769e-05
91 *99:22 *102:10 0.00014119
92 *99:134 *102:30 5.50049e-05
93 *99:138 *102:30 0.000267173
*RES
1 *929:X *102:10 42.5364 
2 *102:10 *102:16 24.8186 
3 *102:16 *102:18 15 
4 *102:18 *102:30 35.7143 
5 *102:30 *1088:A1 39.3436 
6 *102:30 *102:43 32.9621 
7 *102:43 *934:B 23 
8 *102:43 *102:54 21.4214 
9 *102:54 *102:64 35.2379 
10 *102:64 *950:A 23 
11 *102:54 *937:A 38 
12 *102:18 *1110:A 45.4571 
13 *102:16 *1109:B1 24.4707 
14 *102:10 *102:108 16.7579 
15 *102:108 *102:112 38.0343 
16 *102:112 *102:120 36.3179 
17 *102:120 *946:A 43.5279 
18 *102:112 *930:A 23 
19 *102:108 *939:B 38 
*END

*D_NET *103 0.000834221
*CONN
*I *931:C1 I *D sky130_fd_sc_hd__a221o_1
*I *930:X O *D sky130_fd_sc_hd__xor2_1
*CAP
1 *931:C1 0
2 *930:X 0.000383591
3 *103:10 0.000383591
4 *101:8 *103:10 6.70389e-05
*RES
1 *930:X *103:10 44.2971 
2 *103:10 *931:C1 38 
*END

*D_NET *104 0.00108081
*CONN
*I *932:C1 I *D sky130_fd_sc_hd__a211o_1
*I *931:X O *D sky130_fd_sc_hd__a221o_1
*CAP
1 *932:C1 0
2 *931:X 0.000162319
3 *104:10 0.000162319
4 *104:10 *126:177 0.000350206
5 *104:10 *262:12 5.5792e-05
6 *104:10 *326:126 0.000350176
*RES
1 *931:X *104:10 43.3443 
2 *104:10 *932:C1 38 
*END

*D_NET *105 0.00361586
*CONN
*I *952:A I *D sky130_fd_sc_hd__and4_1
*I *958:A_N I *D sky130_fd_sc_hd__and4b_1
*I *932:X O *D sky130_fd_sc_hd__a211o_1
*CAP
1 *952:A 0
2 *958:A_N 0
3 *932:X 0.000650071
4 *105:20 0.000322528
5 *105:10 0.000972599
6 *105:10 *952:B 4.96717e-05
7 *105:10 *952:D 3.3577e-05
8 *105:10 *1124:A 0.000583063
9 *105:10 *125:10 3.22879e-05
10 *105:10 *213:20 9.17998e-05
11 *105:10 *239:113 5.3304e-05
12 *105:10 *266:26 5.67058e-05
13 *105:20 *958:C 0.000397596
14 *105:20 *1116:A1 6.17437e-06
15 *105:20 *133:8 0.000138727
16 *105:20 *137:63 3.70094e-05
17 *105:20 *213:35 0
18 *30:90 *105:10 0.000190749
*RES
1 *932:X *105:10 38.5564 
2 *105:10 *105:20 37.1879 
3 *105:20 *958:A_N 23 
4 *105:10 *952:A 23 
*END

*D_NET *106 0.00111032
*CONN
*I *935:B2 I *D sky130_fd_sc_hd__a221oi_2
*I *938:A1 I *D sky130_fd_sc_hd__o2111a_1
*I *933:Y O *D sky130_fd_sc_hd__inv_2
*CAP
1 *935:B2 0
2 *938:A1 0.00016248
3 *933:Y 0.000171173
4 *106:10 0.000333653
5 *938:A1 *938:C1 2.93335e-05
6 *938:A1 *108:10 0.000131532
7 *938:A1 *253:22 3.34042e-05
8 *938:A1 *362:35 7.91027e-05
9 *938:A1 *375:20 8.16757e-06
10 *106:10 *253:22 1.26005e-05
11 *106:10 *375:20 0.000116408
12 *933:A *106:10 3.24692e-05
*RES
1 *933:Y *106:10 41.0036 
2 *106:10 *938:A1 41.5836 
3 *106:10 *935:B2 38 
*END

*D_NET *107 0.00188094
*CONN
*I *935:C1 I *D sky130_fd_sc_hd__a221oi_2
*I *934:X O *D sky130_fd_sc_hd__and2b_1
*CAP
1 *935:C1 6.2545e-05
2 *934:X 0.000491741
3 *107:16 0.000554286
4 *935:C1 *239:22 2.46906e-05
5 *935:C1 *239:32 1.3523e-05
6 *107:16 *1188:RESET_B 0.00043937
7 *107:16 *110:10 0.000115249
8 *107:16 *375:10 5.3304e-05
9 *107:16 *375:20 0
10 *93:213 *107:16 3.05943e-05
11 *93:219 *107:16 9.56378e-05
*RES
1 *934:X *107:16 48.5436 
2 *107:16 *935:C1 39.4707 
*END

*D_NET *108 0.00261764
*CONN
*I *943:A1 I *D sky130_fd_sc_hd__a21oi_1
*I *963:B I *D sky130_fd_sc_hd__nand3b_1
*I *965:A1 I *D sky130_fd_sc_hd__a21o_1
*I *935:Y O *D sky130_fd_sc_hd__a221oi_2
*CAP
1 *943:A1 5.90545e-05
2 *963:B 0
3 *965:A1 2.93956e-05
4 *935:Y 0.00035237
5 *108:29 0.000126396
6 *108:21 0.000273029
7 *108:12 0.000116974
8 *108:10 0.00035237
9 *943:A1 *943:A2 4.44329e-05
10 *943:A1 *115:28 3.04577e-05
11 *965:A1 *111:23 3.85196e-05
12 *965:A1 *115:28 1.64922e-05
13 *108:10 *239:22 0.000179473
14 *108:10 *253:22 0.000343212
15 *108:10 *362:35 1.39734e-05
16 *108:21 *943:A2 5.56356e-05
17 *108:21 *111:23 0.000135037
18 *108:21 *115:28 2.46906e-05
19 *108:21 *137:10 1.32494e-05
20 *108:29 *938:C1 7.05643e-06
21 *108:29 *943:A2 3.43144e-05
22 *108:29 *963:C 0.000139713
23 *108:29 *239:18 7.49016e-05
24 *108:29 *253:22 1.5759e-05
25 *938:A1 *108:10 0.000131532
26 *98:30 *108:29 9.5956e-06
*RES
1 *935:Y *108:10 44.7736 
2 *108:10 *108:12 15 
3 *108:12 *965:A1 23.8493 
4 *108:12 *108:21 2.05071 
5 *108:21 *108:29 33.1279 
6 *108:29 *963:B 23 
7 *108:21 *943:A1 24.595 
*END

*D_NET *109 0.00146602
*CONN
*I *938:C1 I *D sky130_fd_sc_hd__o2111a_1
*I *936:X O *D sky130_fd_sc_hd__or2b_1
*CAP
1 *938:C1 0.000525708
2 *936:X 3.95568e-05
3 *109:8 0.000565265
4 *938:C1 *938:B1 5.56279e-05
5 *938:C1 *963:C 1.01983e-05
6 *938:C1 *115:38 1.23453e-05
7 *938:C1 *135:6 2.95526e-05
8 *938:C1 *362:27 1.98624e-05
9 *109:8 *214:12 8.57577e-05
10 *109:8 *239:18 8.57577e-05
11 *938:A1 *938:C1 2.93335e-05
12 *108:29 *938:C1 7.05643e-06
*RES
1 *936:X *109:8 39.2014 
2 *109:8 *938:C1 44.3386 
*END

*D_NET *110 0.00108654
*CONN
*I *938:D1 I *D sky130_fd_sc_hd__o2111a_1
*I *937:X O *D sky130_fd_sc_hd__or2b_1
*CAP
1 *938:D1 4.66889e-05
2 *937:X 0.000235139
3 *110:10 0.000281828
4 *110:10 *375:20 5.46387e-05
5 *93:213 *110:10 0.000352993
6 *107:16 *110:10 0.000115249
*RES
1 *937:X *110:10 43.3443 
2 *110:10 *938:D1 38.8493 
*END

*D_NET *111 0.00222831
*CONN
*I *963:C I *D sky130_fd_sc_hd__nand3b_1
*I *943:A2 I *D sky130_fd_sc_hd__a21oi_1
*I *965:A2 I *D sky130_fd_sc_hd__a21o_1
*I *938:X O *D sky130_fd_sc_hd__o2111a_1
*CAP
1 *963:C 9.0319e-05
2 *943:A2 5.47822e-05
3 *965:A2 0
4 *938:X 7.67109e-05
5 *111:23 0.000310243
6 *111:12 0.000420452
7 *111:8 0.000332021
8 *943:A2 *115:28 0.000102389
9 *943:A2 *115:38 6.07306e-05
10 *963:C *115:38 0.000195091
11 *938:C1 *963:C 1.01983e-05
12 *943:A1 *943:A2 4.44329e-05
13 *965:A1 *111:23 3.85196e-05
14 *93:213 *111:8 4.69696e-05
15 *102:64 *111:8 8.07477e-05
16 *108:21 *943:A2 5.56356e-05
17 *108:21 *111:23 0.000135037
18 *108:29 *943:A2 3.43144e-05
19 *108:29 *963:C 0.000139713
*RES
1 *938:X *111:8 40.2579 
2 *111:8 *111:12 19.4329 
3 *111:12 *965:A2 23 
4 *111:12 *111:23 17.9 
5 *111:23 *943:A2 39.9471 
6 *111:23 *963:C 40.9518 
*END

*D_NET *112 0.00110567
*CONN
*I *962:A I *D sky130_fd_sc_hd__nand3_1
*I *942:B I *D sky130_fd_sc_hd__and4_1
*I *939:Y O *D sky130_fd_sc_hd__xnor2_1
*CAP
1 *962:A 0.000139774
2 *942:B 0
3 *939:Y 0
4 *112:12 0.000192477
5 *112:4 0.000332251
6 *962:A *939:A 0.000147651
7 *962:A *962:C 0.000139857
8 *962:A *113:28 9.66668e-05
9 *112:12 *939:A 1.08287e-05
10 *102:108 *112:12 4.61596e-05
*RES
1 *939:Y *112:4 23 
2 *112:4 *112:12 32.8793 
3 *112:12 *942:B 23 
4 *112:4 *962:A 27.205 
*END

*D_NET *113 0.00480004
*CONN
*I *962:B I *D sky130_fd_sc_hd__nand3_1
*I *942:C I *D sky130_fd_sc_hd__and4_1
*I *940:Y O *D sky130_fd_sc_hd__xnor2_1
*CAP
1 *962:B 0
2 *942:C 0
3 *940:Y 0.000522683
4 *113:28 0.000317445
5 *113:8 0.000840128
6 *113:8 *939:A 0.000869484
7 *113:8 *962:C 5.14826e-05
8 *113:8 *1007:A0 0.000580569
9 *113:8 *1007:A1 0.000117263
10 *113:8 *294:14 8.42292e-05
11 *113:8 *360:12 0.000137525
12 *113:28 *939:A 0.000141347
13 *113:28 *942:A 0.000102944
14 *113:28 *942:D 7.2804e-05
15 *113:28 *962:C 0.000265906
16 *113:28 *1142:CLK 6.91908e-05
17 *113:28 *134:8 5.26052e-05
18 *113:28 *246:46 0.000187765
19 *113:28 *246:48 1.71017e-05
20 *113:28 *246:52 6.3568e-05
21 *962:A *113:28 9.66668e-05
22 *41:10 *113:8 2.19667e-05
23 *74:10 *113:8 0.000187363
*RES
1 *940:Y *113:8 39.3643 
2 *113:8 *113:28 40.3779 
3 *113:28 *942:C 23 
4 *113:8 *962:B 23 
*END

*D_NET *114 0.00280946
*CONN
*I *942:D I *D sky130_fd_sc_hd__and4_1
*I *962:C I *D sky130_fd_sc_hd__nand3_1
*I *941:Y O *D sky130_fd_sc_hd__xnor2_1
*CAP
1 *942:D 0.00018695
2 *962:C 0.000390626
3 *941:Y 0.000364743
4 *114:8 0.000942318
5 *942:D *942:A 0.000191417
6 *962:C *134:8 5.44889e-06
7 *114:8 *134:8 3.48854e-05
8 *114:8 *247:8 0
9 *114:8 *256:696 0.000163025
10 *962:A *962:C 0.000139857
11 *113:8 *962:C 5.14826e-05
12 *113:28 *942:D 7.2804e-05
13 *113:28 *962:C 0.000265906
*RES
1 *941:Y *114:8 44.8357 
2 *114:8 *962:C 45.1671 
3 *114:8 *942:D 41.0036 
*END

*D_NET *115 0.004486
*CONN
*I *1091:A1 I *D sky130_fd_sc_hd__o21ai_1
*I *943:B1 I *D sky130_fd_sc_hd__a21oi_1
*I *965:B1 I *D sky130_fd_sc_hd__a21o_1
*I *963:A_N I *D sky130_fd_sc_hd__nand3b_1
*I *942:X O *D sky130_fd_sc_hd__and4_1
*CAP
1 *1091:A1 4.16233e-05
2 *943:B1 0
3 *965:B1 0
4 *963:A_N 0
5 *942:X 0.000486826
6 *115:38 0.000123509
7 *115:28 0.000285954
8 *115:22 0.000414108
9 *115:14 0.000780113
10 *1091:A1 *1091:B1 9.61196e-06
11 *115:14 *964:A1 0.000199717
12 *115:14 *964:B1 1.84831e-05
13 *115:14 *134:26 8.6036e-05
14 *115:14 *246:52 0.000692518
15 *115:14 *374:17 3.66555e-05
16 *115:22 *116:10 2.64616e-05
17 *115:22 *127:28 9.98726e-05
18 *115:22 *129:59 6.5117e-06
19 *115:22 *136:8 0.000168524
20 *115:22 *213:35 0.000168524
21 *115:28 *137:10 0.000101226
22 *115:38 *253:22 0.000192032
23 *938:C1 *115:38 1.23453e-05
24 *943:A1 *115:28 3.04577e-05
25 *943:A2 *115:28 0.000102389
26 *943:A2 *115:38 6.07306e-05
27 *963:C *115:38 0.000195091
28 *965:A1 *115:28 1.64922e-05
29 *1187:D *115:14 8.26478e-05
30 *98:30 *115:22 1.47795e-05
31 *98:30 *115:28 8.06804e-06
32 *108:21 *115:28 2.46906e-05
*RES
1 *942:X *115:14 37.7693 
2 *115:14 *115:22 36.09 
3 *115:22 *115:28 3.99786 
4 *115:28 *115:38 33.6975 
5 *115:38 *963:A_N 23 
6 *115:28 *965:B1 23 
7 *115:22 *943:B1 23 
8 *115:14 *1091:A1 23.9943 
*END

*D_NET *116 0.00414727
*CONN
*I *958:B I *D sky130_fd_sc_hd__and4b_1
*I *952:B I *D sky130_fd_sc_hd__and4_1
*I *961:A1 I *D sky130_fd_sc_hd__a31o_1
*I *943:Y O *D sky130_fd_sc_hd__a21oi_1
*CAP
1 *958:B 1.50079e-05
2 *952:B 0.000122261
3 *961:A1 0
4 *943:Y 0.000354737
5 *116:24 9.34146e-05
6 *116:18 0.000659653
7 *116:10 0.000813722
8 *952:B *960:A 9.84851e-05
9 *952:B *132:10 4.2573e-05
10 *952:B *213:20 7.43025e-06
11 *958:B *958:C 5.50049e-05
12 *958:B *239:18 5.50049e-05
13 *116:10 *127:28 5.60256e-05
14 *116:10 *137:42 0.000136486
15 *116:10 *213:35 0
16 *116:10 *239:18 0.000608499
17 *116:18 *960:A 8.43466e-05
18 *116:18 *1119:A1 9.8971e-06
19 *116:18 *1119:A3 2.4754e-05
20 *116:18 *1119:B1 0.000139352
21 *116:18 *132:10 5.3304e-05
22 *116:18 *137:42 0.000187986
23 *116:18 *137:63 1.76557e-05
24 *116:18 *233:8 6.07611e-06
25 *116:18 *239:55 0
26 *116:24 *132:10 0.000141869
27 *116:24 *137:63 5.25997e-05
28 *116:24 *377:27 1.22803e-05
29 *98:30 *116:10 7.67405e-05
30 *98:30 *116:18 0.000110116
31 *98:38 *116:18 3.58553e-05
32 *105:10 *952:B 4.96717e-05
33 *115:22 *116:10 2.64616e-05
*RES
1 *943:Y *116:10 47.57 
2 *116:10 *116:18 23.4721 
3 *116:18 *116:24 32.2579 
4 *116:24 *961:A1 23 
5 *116:18 *952:B 25.5271 
6 *116:10 *958:B 38.6214 
*END

*D_NET *117 0.00175283
*CONN
*I *959:B1 I *D sky130_fd_sc_hd__a2111oi_1
*I *947:B1 I *D sky130_fd_sc_hd__a2111o_1
*I *944:Y O *D sky130_fd_sc_hd__o21ai_1
*CAP
1 *959:B1 0
2 *947:B1 0.000141117
3 *944:Y 0.000335724
4 *117:12 0.000141117
5 *117:10 0.000335724
6 *947:B1 *947:A2 5.71469e-05
7 *947:B1 *959:A2 8.48502e-06
8 *947:B1 *959:D1 0.000277896
9 *117:10 *118:25 0.000134776
10 *117:10 *243:35 6.87978e-05
11 *946:A *117:10 3.46673e-05
12 *98:82 *947:B1 7.8033e-05
13 *98:82 *117:10 0.000139346
*RES
1 *944:Y *117:10 43.2614 
2 *117:10 *117:12 15 
3 *117:12 *947:B1 26.9564 
4 *117:12 *959:B1 23 
*END

*D_NET *118 0.0029495
*CONN
*I *959:C1 I *D sky130_fd_sc_hd__a2111oi_1
*I *947:C1 I *D sky130_fd_sc_hd__a2111o_1
*I *945:X O *D sky130_fd_sc_hd__xor2_1
*CAP
1 *959:C1 0
2 *947:C1 0
3 *945:X 0.000295983
4 *118:25 0.000399346
5 *118:12 0.000202504
6 *118:6 0.000897833
7 *118:12 *944:B1 6.61762e-05
8 *118:12 *239:59 0
9 *118:12 *367:23 0
10 *118:12 *367:36 0
11 *118:25 *243:35 4.38655e-05
12 *118:25 *367:23 2.64506e-05
13 *118:25 *367:36 6.7177e-06
14 *946:A *118:6 0.000393281
15 *946:A *118:25 0.000355029
16 *98:59 *118:12 6.90927e-05
17 *98:82 *118:25 5.84443e-05
18 *117:10 *118:25 0.000134776
*RES
1 *945:X *118:6 27.4329 
2 *118:6 *118:12 33.6664 
3 *118:12 *947:C1 23 
4 *118:6 *118:25 37.6229 
5 *118:25 *959:C1 23 
*END

*D_NET *119 0.00254409
*CONN
*I *959:D1 I *D sky130_fd_sc_hd__a2111oi_1
*I *947:D1 I *D sky130_fd_sc_hd__a2111o_1
*I *946:X O *D sky130_fd_sc_hd__xor2_1
*CAP
1 *959:D1 0.000164678
2 *947:D1 0
3 *946:X 8.95026e-05
4 *119:14 0.000645896
5 *119:8 0.000570721
6 *959:D1 *120:16 0.000210868
7 *119:8 *126:113 0
8 *119:8 *253:58 0.000171227
9 *119:14 *120:16 4.44894e-05
10 *119:14 *325:50 9.06073e-05
11 *947:B1 *959:D1 0.000277896
12 *949:A *119:14 0.000278204
*RES
1 *946:X *119:8 40.2579 
2 *119:8 *119:14 24.0936 
3 *119:14 *947:D1 23 
4 *119:14 *959:D1 27.8057 
*END

*D_NET *120 0.00500545
*CONN
*I *958:C I *D sky130_fd_sc_hd__and4b_1
*I *952:C I *D sky130_fd_sc_hd__and4_1
*I *1094:A1 I *D sky130_fd_sc_hd__a21oi_1
*I *947:X O *D sky130_fd_sc_hd__a2111o_1
*CAP
1 *958:C 0.000367051
2 *952:C 0
3 *1094:A1 4.5791e-05
4 *947:X 0.000475049
5 *120:33 0.000422949
6 *120:22 0.000282582
7 *120:16 0.000655942
8 *958:C *958:D 0
9 *958:C *1116:A1 7.99976e-05
10 *958:C *125:10 7.45175e-05
11 *958:C *129:10 8.80821e-05
12 *958:C *133:8 9.79642e-05
13 *958:C *213:14 8.94487e-05
14 *958:C *239:18 0.00010999
15 *958:C *239:51 4.17736e-05
16 *958:C *239:113 0.000424318
17 *1094:A1 *961:A2 5.50049e-05
18 *120:16 *131:8 0.000343121
19 *120:22 *952:D 2.53549e-05
20 *120:22 *124:63 8.59492e-05
21 *120:22 *133:8 2.9742e-05
22 *120:22 *213:14 1.81437e-05
23 *120:22 *266:10 0.000132638
24 *120:33 *133:8 6.32792e-05
25 *120:33 *213:14 0.000135186
26 *958:B *958:C 5.50049e-05
27 *959:D1 *120:16 0.000210868
28 *98:53 *120:16 0.000153618
29 *105:20 *958:C 0.000397596
30 *119:14 *120:16 4.44894e-05
*RES
1 *947:X *120:16 48.1189 
2 *120:16 *120:22 4.25679 
3 *120:22 *1094:A1 38.6214 
4 *120:22 *120:33 1.90571 
5 *120:33 *952:C 38 
6 *120:33 *958:C 49.7243 
*END

*D_NET *121 0.00116386
*CONN
*I *951:B1 I *D sky130_fd_sc_hd__a2111o_2
*I *948:Y O *D sky130_fd_sc_hd__o21ai_1
*CAP
1 *951:B1 2.58672e-05
2 *948:Y 0.000281365
3 *121:10 0.000307232
4 *951:B1 *951:A2 0.000100061
5 *951:B1 *951:C1 5.56279e-05
6 *951:B1 *124:10 2.31687e-05
7 *121:10 *951:A2 0
8 *121:10 *124:10 0.00017462
9 *121:10 *124:14 0.00016658
10 *121:10 *256:471 0
11 *948:A1 *121:10 2.93335e-05
*RES
1 *948:Y *121:10 43.3443 
2 *121:10 *951:B1 39.0979 
*END

*D_NET *122 0.000904384
*CONN
*I *951:C1 I *D sky130_fd_sc_hd__a2111o_2
*I *949:X O *D sky130_fd_sc_hd__xor2_1
*CAP
1 *951:C1 2.31688e-05
2 *949:X 0.000277031
3 *122:12 0.0003002
4 *951:C1 *951:A2 2.46906e-05
5 *951:C1 *124:10 0.000100061
6 *122:12 *124:10 1.46784e-05
7 *122:12 *253:44 0.000108927
8 *951:B1 *951:C1 5.56279e-05
9 *93:213 *122:12 0
*RES
1 *949:X *122:12 43.4893 
2 *122:12 *951:C1 39.0979 
*END

*D_NET *123 0.00228195
*CONN
*I *951:D1 I *D sky130_fd_sc_hd__a2111o_2
*I *950:X O *D sky130_fd_sc_hd__xor2_1
*CAP
1 *951:D1 8.5126e-05
2 *950:X 0.000512311
3 *123:10 0.000597437
4 *951:D1 *951:A2 5.56356e-05
5 *951:D1 *124:10 9.03964e-06
6 *123:10 *948:A2 0.000132665
7 *123:10 *948:B1 0
8 *123:10 *951:A2 0.000216874
9 *123:10 *1117:A 0.000131304
10 *123:10 *1117:B 3.16665e-05
11 *123:10 *124:14 0
12 *93:213 *123:10 0.000509887
*RES
1 *950:X *123:10 49.2686 
2 *123:10 *951:D1 39.0979 
*END

*D_NET *124 0.00717846
*CONN
*I *961:A3 I *D sky130_fd_sc_hd__a31o_1
*I *952:D I *D sky130_fd_sc_hd__and4_1
*I *1090:B I *D sky130_fd_sc_hd__nand2_1
*I *1094:A2 I *D sky130_fd_sc_hd__a21oi_1
*I *958:D I *D sky130_fd_sc_hd__and4b_1
*I *966:A2 I *D sky130_fd_sc_hd__o21ai_1
*I *1116:A3 I *D sky130_fd_sc_hd__o31a_1
*I *951:X O *D sky130_fd_sc_hd__a2111o_2
*CAP
1 *961:A3 2.05149e-05
2 *952:D 0.000209594
3 *1090:B 1.50553e-05
4 *1094:A2 0
5 *958:D 5.53179e-05
6 *966:A2 0
7 *1116:A3 2.32701e-05
8 *951:X 0.000313584
9 *124:65 1.50553e-05
10 *124:63 0.000499222
11 *124:55 0.000836072
12 *124:31 0.000357939
13 *124:23 0.000499506
14 *124:14 0.000269894
15 *124:10 0.000999888
16 *952:D *213:14 5.82411e-05
17 *952:D *265:8 0.000126623
18 *958:D *1116:A2 0
19 *961:A3 *137:63 3.28357e-06
20 *1090:B *961:A2 5.50106e-05
21 *1090:B *266:16 5.58003e-05
22 *1116:A3 *1116:A1 5.3304e-05
23 *1116:A3 *1116:A2 5.3304e-05
24 *124:10 *951:A2 4.53056e-05
25 *124:10 *253:44 0.000198081
26 *124:14 *948:B1 0.0001619
27 *124:14 *253:44 0.000358099
28 *124:23 *1116:A1 0.000257602
29 *124:23 *1116:A2 5.50106e-05
30 *124:23 *130:10 2.07086e-05
31 *124:23 *253:44 1.40958e-05
32 *124:31 *137:10 0
33 *124:55 *961:A2 2.10502e-05
34 *124:55 *1120:A 2.95526e-05
35 *124:55 *253:44 3.75055e-05
36 *124:55 *256:471 0.000268339
37 *124:55 *364:6 5.30008e-05
38 *124:63 *961:A2 7.64059e-06
39 *124:63 *137:63 5.00237e-05
40 *124:63 *216:8 0.000137525
41 *124:63 *265:8 4.6318e-06
42 *951:A1 *124:10 5.81185e-05
43 *951:B1 *124:10 2.31687e-05
44 *951:C1 *124:10 0.000100061
45 *951:D1 *124:10 9.03964e-06
46 *958:C *958:D 0
47 *98:30 *124:31 0.000246757
48 *105:10 *952:D 3.3577e-05
49 *120:22 *952:D 2.53549e-05
50 *120:22 *124:63 8.59492e-05
51 *121:10 *124:10 0.00017462
52 *121:10 *124:14 0.00016658
53 *122:12 *124:10 1.46784e-05
54 *123:10 *124:14 0
*RES
1 *951:X *124:10 45.0946 
2 *124:10 *124:14 20.6032 
3 *124:14 *1116:A3 23.6214 
4 *124:14 *124:23 3.00357 
5 *124:23 *124:31 35.365 
6 *124:31 *966:A2 23 
7 *124:23 *958:D 24.1238 
8 *124:10 *124:55 25.1604 
9 *124:55 *124:63 19.7021 
10 *124:63 *124:65 15 
11 *124:65 *1094:A2 23 
12 *124:65 *1090:B 23.6214 
13 *124:63 *952:D 41.77 
14 *124:55 *961:A3 23.4971 
*END

*D_NET *125 0.00160984
*CONN
*I *955:A_N I *D sky130_fd_sc_hd__and3b_1
*I *1099:B I *D sky130_fd_sc_hd__nand2_2
*I *952:X O *D sky130_fd_sc_hd__and4_1
*CAP
1 *955:A_N 0.000272463
2 *1099:B 0
3 *952:X 0.000278713
4 *125:10 0.000551177
5 *955:A_N *955:B 0.000116216
6 *955:A_N *955:C 2.95423e-05
7 *955:A_N *1186:CLK 5.18278e-05
8 *955:A_N *129:48 1.11121e-05
9 *955:A_N *373:24 4.21594e-06
10 *125:10 *129:10 1.34354e-05
11 *125:10 *129:48 4.58924e-05
12 *125:10 *213:14 1.01436e-05
13 *125:10 *239:113 0
14 *125:10 *373:24 4.48671e-05
15 *958:C *125:10 7.45175e-05
16 *30:18 *955:A_N 7.34273e-05
17 *105:10 *125:10 3.22879e-05
*RES
1 *952:X *125:10 43.3443 
2 *125:10 *1099:B 38 
3 *125:10 *955:A_N 44.4007 
*END

*D_NET *126 0.0400354
*CONN
*I *1078:S I *D sky130_fd_sc_hd__mux2_1
*I *954:A I *D sky130_fd_sc_hd__inv_2
*I *1072:S I *D sky130_fd_sc_hd__mux2_1
*I *1111:B1 I *D sky130_fd_sc_hd__a21oi_1
*I *1080:S I *D sky130_fd_sc_hd__mux2_1
*I *1082:S I *D sky130_fd_sc_hd__mux2_1
*I *1123:A I *D sky130_fd_sc_hd__or2_1
*I *1054:S I *D sky130_fd_sc_hd__mux2_1
*I *1056:S I *D sky130_fd_sc_hd__mux2_1
*I *1058:S I *D sky130_fd_sc_hd__mux2_1
*I *1060:S I *D sky130_fd_sc_hd__mux2_1
*I *1062:S I *D sky130_fd_sc_hd__mux2_1
*I *1120:A I *D sky130_fd_sc_hd__or2_1
*I *1064:S I *D sky130_fd_sc_hd__mux2_1
*I *1117:A I *D sky130_fd_sc_hd__or2_1
*I *1076:S I *D sky130_fd_sc_hd__mux2_1
*I *1074:S I *D sky130_fd_sc_hd__mux2_1
*I *1070:S I *D sky130_fd_sc_hd__mux2_1
*I *1066:S I *D sky130_fd_sc_hd__mux2_1
*I *1068:S I *D sky130_fd_sc_hd__mux2_1
*I *953:X O *D sky130_fd_sc_hd__buf_6
*CAP
1 *1078:S 0
2 *954:A 2.13128e-05
3 *1072:S 0.000124147
4 *1111:B1 2.09586e-05
5 *1080:S 7.43586e-05
6 *1082:S 0
7 *1123:A 0
8 *1054:S 0.000191157
9 *1056:S 0
10 *1058:S 5.92306e-05
11 *1060:S 0
12 *1062:S 0
13 *1120:A 3.26852e-05
14 *1064:S 0
15 *1117:A 0.00025734
16 *1076:S 0.00029875
17 *1074:S 0
18 *1070:S 0.000143537
19 *1066:S 2.82225e-05
20 *1068:S 3.57566e-05
21 *953:X 0
22 *126:265 0.00112633
23 *126:242 0.0019055
24 *126:228 0.00188137
25 *126:208 0.000116067
26 *126:202 0.000412411
27 *126:198 0.00184077
28 *126:187 0.00063323
29 *126:177 0.00179851
30 *126:161 0.000589323
31 *126:157 0.00125046
32 *126:144 0.000916099
33 *126:133 0.000108131
34 *126:113 0.00107412
35 *126:69 0.00102199
36 *126:58 0.00110319
37 *126:54 0.000631276
38 *126:43 0.000557216
39 *126:32 0.000923706
40 *126:26 0.00117987
41 *126:22 0.00219209
42 *126:14 0.000792592
43 *126:10 0.00140183
44 *126:4 0.00149714
45 *954:A *1072:A0 5.47983e-06
46 *1054:S *1056:A1 0.000186032
47 *1054:S *290:6 8.60859e-05
48 *1054:S *300:16 5.82853e-05
49 *1058:S *1224:A 2.93845e-05
50 *1066:S *1066:A0 6.17437e-06
51 *1066:S *1066:A1 5.82853e-05
52 *1066:S *241:72 0.000100477
53 *1068:S *1039:A0 3.26241e-05
54 *1068:S *1068:A0 5.5792e-05
55 *1068:S *275:14 2.50118e-05
56 *1068:S *325:50 7.9566e-05
57 *1070:S *1070:A0 0.000182826
58 *1070:S *1154:RESET_B 2.93845e-05
59 *1070:S *277:21 3.17516e-05
60 *1072:S *1072:A0 0.000151328
61 *1076:S *1020:S 9.67842e-05
62 *1076:S *162:27 0.00020807
63 *1076:S *256:344 3.70094e-05
64 *1076:S *256:354 0.000184174
65 *1076:S *256:367 0.000210659
66 *1076:S *279:6 9.75779e-05
67 *1080:S *1175:RESET_B 7.48608e-05
68 *1117:A *232:10 4.06849e-05
69 *1117:A *256:292 0
70 *1117:A *324:81 0.000141888
71 *126:10 *243:10 0.000276722
72 *126:14 *1062:A0 3.32626e-05
73 *126:22 *1062:A0 3.06866e-05
74 *126:22 *1063:A 1.24376e-05
75 *126:22 *253:58 0.000376379
76 *126:22 *287:21 2.93335e-05
77 *126:26 *1165:CLK 7.44354e-05
78 *126:26 *1165:RESET_B 8.96635e-06
79 *126:26 *256:165 3.87138e-06
80 *126:26 *256:169 6.98823e-05
81 *126:32 *1168:CLK 0
82 *126:32 *1168:RESET_B 0.000129504
83 *126:32 *256:171 6.16531e-05
84 *126:32 *291:21 1.14452e-05
85 *126:43 *324:81 0.00034719
86 *126:54 *256:292 0
87 *126:54 *256:461 7.57281e-06
88 *126:54 *324:81 0.000243246
89 *126:69 *1022:S 9.49202e-05
90 *126:69 *1154:RESET_B 0
91 *126:69 *162:27 4.6318e-06
92 *126:69 *256:292 0.000247687
93 *126:69 *256:318 0.00015954
94 *126:69 *256:330 0.000424005
95 *126:69 *256:337 0.000263571
96 *126:69 *256:344 0.000368353
97 *126:69 *285:8 2.79004e-05
98 *126:69 *325:64 0
99 *126:113 *945:B 0.000105062
100 *126:113 *1190:RESET_B 0.000188528
101 *126:113 *234:8 4.61178e-05
102 *126:113 *239:55 0
103 *126:113 *253:44 0
104 *126:113 *253:58 0
105 *126:113 *256:165 7.64334e-05
106 *126:113 *256:471 0.000137744
107 *126:113 *295:10 0.000222123
108 *126:113 *324:68 8.7132e-05
109 *126:113 *325:50 7.75992e-05
110 *126:113 *368:8 2.95125e-05
111 *126:133 *239:59 0
112 *126:133 *239:72 0
113 *126:133 *301:29 8.60837e-05
114 *126:133 *324:68 0
115 *126:133 *367:12 3.20914e-05
116 *126:144 *1125:B 9.98726e-05
117 *126:144 *1163:RESET_B 6.38947e-05
118 *126:144 *262:18 0
119 *126:144 *326:111 0.000191565
120 *126:144 *326:126 0.000223961
121 *126:157 *326:126 0.00029165
122 *126:161 *1056:A1 5.82853e-05
123 *126:161 *290:6 2.50118e-05
124 *126:177 *326:126 0.000306195
125 *126:177 *355:31 0.000263199
126 *126:177 *371:18 0.000137744
127 *126:187 *1123:B 0.000102389
128 *126:187 *1174:CLK 3.65917e-05
129 *126:187 *1191:CLK 2.20111e-05
130 *126:187 *236:10 2.25988e-05
131 *126:187 *246:23 0
132 *126:198 *1174:CLK 0.000216885
133 *126:198 *325:112 0
134 *126:202 *1083:A 3.46302e-05
135 *126:202 *1175:RESET_B 4.60234e-05
136 *126:208 *294:10 3.67392e-05
137 *126:208 *324:120 0.000238768
138 *126:208 *360:8 8.57485e-05
139 *126:228 *1007:S 9.51169e-05
140 *126:228 *1078:A0 0.00010018
141 *126:228 *154:33 8.83237e-05
142 *126:228 *209:8 9.57748e-05
143 *126:228 *246:89 0.000108713
144 *126:228 *302:23 0
145 *126:228 *358:27 0.000148524
146 *126:242 *929:A 0.000102389
147 *126:242 *1078:A0 5.50106e-05
148 *126:242 *1173:RESET_B 0
149 *126:242 *247:49 0.000213249
150 *126:242 *256:682 1.09783e-05
151 *126:242 *256:688 0
152 *126:242 *256:753 0
153 *126:242 *302:23 1.14452e-05
154 *126:242 *358:12 0
155 *126:242 *358:27 5.561e-05
156 *126:265 *1072:A0 2.93985e-05
157 *126:265 *1109:A2 1.69977e-05
158 *126:265 *139:55 4.90763e-05
159 *126:265 *225:10 0.000433258
160 *126:265 *227:12 0.000268868
161 *126:265 *355:92 9.68428e-05
162 *932:B1 *126:177 7.13256e-05
163 *945:A *126:113 0.000165384
164 *1088:A1 *1076:S 4.04206e-05
165 *1110:A *126:265 0.000105692
166 *40:10 *126:228 0
167 *68:10 *126:32 3.31683e-05
168 *74:10 *126:208 3.62949e-05
169 *84:12 *1111:B1 7.61229e-06
170 *84:12 *126:265 0.000188526
171 *93:100 *126:26 9.67756e-05
172 *93:100 *126:32 5.3304e-05
173 *93:213 *126:32 0
174 *97:33 *126:187 0.000347551
175 *98:38 *126:113 3.82553e-05
176 *98:144 *126:198 0
177 *98:144 *126:228 0
178 *99:22 *126:242 0.000337202
179 *99:59 *126:161 0.000124884
180 *99:69 *126:113 0.000190742
181 *101:8 *126:177 1.50326e-05
182 *102:64 *1117:A 0.000228001
183 *102:112 *126:187 0.000114092
184 *104:10 *126:177 0.000350206
185 *119:8 *126:113 0
186 *123:10 *1117:A 0.000131304
187 *124:55 *1120:A 2.95526e-05
*RES
1 *953:X *126:4 23 
2 *126:4 *126:10 16.5093 
3 *126:10 *126:14 6.11071 
4 *126:14 *126:22 38.555 
5 *126:22 *126:26 9.57 
6 *126:26 *126:32 24.57 
7 *126:32 *1068:S 39.5743 
8 *126:32 *126:43 8.24429 
9 *126:43 *1066:S 39.0979 
10 *126:43 *126:54 3.31429 
11 *126:54 *126:58 18.9564 
12 *126:58 *1070:S 26.48 
13 *126:58 *126:69 34.5129 
14 *126:69 *1074:S 38 
15 *126:69 *1076:S 46.7829 
16 *126:54 *1117:A 45.2086 
17 *126:26 *1064:S 23 
18 *126:22 *126:113 37.0607 
19 *126:113 *1120:A 38.6214 
20 *126:14 *1062:S 23 
21 *126:10 *126:133 32.2579 
22 *126:133 *1060:S 23 
23 *126:4 *126:144 26.6 
24 *126:144 *1058:S 39.1186 
25 *126:144 *126:157 7.89214 
26 *126:157 *126:161 22.7679 
27 *126:161 *1056:S 23 
28 *126:161 *1054:S 27.4329 
29 *126:157 *126:177 28.5264 
30 *126:177 *126:187 39.9429 
31 *126:187 *1123:A 23 
32 *126:177 *126:198 25.005 
33 *126:198 *126:202 18.9564 
34 *126:202 *126:208 33.3143 
35 *126:208 *1082:S 23 
36 *126:202 *1080:S 24.5743 
37 *126:198 *126:228 36.1493 
38 *126:228 *126:242 49.3264 
39 *126:242 *1111:B1 23.6214 
40 *126:242 *126:265 48.9329 
41 *126:265 *1072:S 26.0036 
42 *126:265 *954:A 23.4971 
43 *126:228 *1078:S 23 
*END

*D_NET *127 0.00846042
*CONN
*I *1108:C1 I *D sky130_fd_sc_hd__o211a_1
*I *1102:A I *D sky130_fd_sc_hd__and3_1
*I *1113:A I *D sky130_fd_sc_hd__nand2_1
*I *1115:A I *D sky130_fd_sc_hd__nand2_1
*I *955:C I *D sky130_fd_sc_hd__and3b_1
*I *968:B1 I *D sky130_fd_sc_hd__o21ai_1
*I *954:Y O *D sky130_fd_sc_hd__inv_2
*CAP
1 *1108:C1 0
2 *1102:A 0.000185459
3 *1113:A 0
4 *1115:A 5.22145e-05
5 *955:C 0.000283689
6 *968:B1 0
7 *954:Y 9.69728e-05
8 *127:69 0.000220595
9 *127:61 0.000685513
10 *127:34 6.19954e-05
11 *127:28 0.00118821
12 *127:22 0.00096892
13 *127:20 0.000768483
14 *127:16 0.000637286
15 *127:8 0.000319411
16 *1102:A *1100:C 5.3304e-05
17 *1102:A *1188:CLK 4.01634e-05
18 *127:8 *214:12 2.45027e-05
19 *127:8 *361:8 8.71559e-05
20 *127:16 *1108:A2 4.98295e-05
21 *127:16 *1108:B1 1.9054e-05
22 *127:16 *139:65 1.56156e-05
23 *127:20 *214:12 0.000201056
24 *127:20 *219:45 0
25 *127:20 *219:68 6.12484e-05
26 *127:22 *214:12 6.02277e-06
27 *127:28 *129:59 0
28 *127:28 *135:21 2.501e-05
29 *127:28 *213:35 6.11587e-05
30 *127:28 *214:12 4.09548e-05
31 *127:28 *230:10 0
32 *127:28 *239:18 3.35883e-06
33 *127:28 *274:8 8.82124e-05
34 *127:34 *1186:CLK 0.000137744
35 *127:34 *219:10 0.000168669
36 *127:61 *1100:C 5.3304e-05
37 *127:61 *1188:CLK 8.638e-05
38 *127:69 *1112:A1 0.000138859
39 *127:69 *1203:A 0.000141344
40 *127:69 *129:59 1.13812e-05
41 *127:69 *139:23 6.92847e-05
42 *127:69 *219:28 0.000222104
43 *127:69 *230:10 0
44 *955:A_N *955:C 2.95423e-05
45 *86:10 *1115:A 5.41385e-05
46 *86:10 *127:20 2.77955e-05
47 *86:10 *127:22 8.62876e-05
48 *98:18 *1115:A 5.41385e-05
49 *98:18 *127:28 0.00016885
50 *98:30 *127:28 0.000340078
51 *98:122 *127:20 0
52 *98:122 *127:22 0
53 *98:122 *127:28 0
54 *98:122 *127:69 0.000195238
55 *99:134 *127:20 7.39816e-05
56 *115:22 *127:28 9.98726e-05
57 *116:10 *127:28 5.60256e-05
*RES
1 *954:Y *127:8 40.2579 
2 *127:8 *127:16 18.9979 
3 *127:16 *127:20 24.6529 
4 *127:20 *127:22 1.55357 
5 *127:22 *127:28 29.9143 
6 *127:28 *127:34 32.2579 
7 *127:34 *968:B1 23 
8 *127:28 *955:C 26.48 
9 *127:22 *1115:A 39.595 
10 *127:20 *127:61 18.9564 
11 *127:61 *127:69 36.6493 
12 *127:69 *1113:A 23 
13 *127:61 *1102:A 25.5479 
14 *127:16 *1108:C1 23 
*END

*D_NET *128 0.000967592
*CONN
*I *956:A I *D sky130_fd_sc_hd__clkbuf_4
*I *955:X O *D sky130_fd_sc_hd__and3b_1
*CAP
1 *956:A 2.12065e-05
2 *955:X 0.000224819
3 *128:8 0.000246026
4 *956:A *1122:A2 0.00014196
5 *128:8 *955:B 0.00018385
6 *128:8 *373:12 0
7 *128:8 *373:24 6.07611e-06
8 *967:A1 *956:A 0.000143655
*RES
1 *955:X *128:8 43.075 
2 *128:8 *956:A 39.5743 
*END

*D_NET *129 0.00801252
*CONN
*I *1112:A1 I *D sky130_fd_sc_hd__o21ai_1
*I *1114:A1 I *D sky130_fd_sc_hd__o21ai_1
*I *968:A1 I *D sky130_fd_sc_hd__o21ai_1
*I *1116:A1 I *D sky130_fd_sc_hd__o31a_1
*I *1119:A1 I *D sky130_fd_sc_hd__o31a_1
*I *957:Y O *D sky130_fd_sc_hd__inv_2
*CAP
1 *1112:A1 0.000140628
2 *1114:A1 0
3 *968:A1 0
4 *1116:A1 0.00056978
5 *1119:A1 0.000190081
6 *957:Y 0.00031065
7 *129:59 0.000407438
8 *129:48 0.000620904
9 *129:18 0.00117901
10 *129:10 0.00108389
11 *1112:A1 *936:B_N 0.000201267
12 *1112:A1 *1203:A 9.53421e-05
13 *1112:A1 *229:12 2.95526e-05
14 *1116:A1 *1116:A2 2.2599e-05
15 *1119:A1 *137:42 8.4047e-05
16 *1119:A1 *137:63 5.50106e-05
17 *1119:A1 *239:55 3.83778e-05
18 *129:10 *133:8 8.62783e-05
19 *129:10 *239:113 0.000164364
20 *129:10 *373:24 4.56219e-05
21 *129:18 *137:42 0.000128583
22 *129:18 *213:35 6.7177e-06
23 *129:18 *239:18 5.50106e-05
24 *129:18 *239:51 5.50049e-05
25 *129:18 *239:55 5.31444e-05
26 *129:18 *239:113 0.000395889
27 *129:48 *133:8 0.000131735
28 *129:48 *136:8 9.66282e-05
29 *129:48 *139:10 0.000166051
30 *129:59 *1114:A2 0.000139882
31 *129:59 *135:21 0
32 *129:59 *136:8 0.000165365
33 *129:59 *139:10 1.13812e-05
34 *129:59 *139:23 0.0005111
35 *129:59 *375:34 2.26406e-05
36 *948:A1 *1119:A1 1.97956e-05
37 *955:A_N *129:48 1.11121e-05
38 *958:C *1116:A1 7.99976e-05
39 *958:C *129:10 8.80821e-05
40 *1116:A3 *1116:A1 5.3304e-05
41 *30:18 *129:48 6.49555e-06
42 *105:20 *1116:A1 6.17437e-06
43 *115:22 *129:59 6.5117e-06
44 *116:18 *1119:A1 9.8971e-06
45 *124:23 *1116:A1 0.000257602
46 *125:10 *129:10 1.34354e-05
47 *125:10 *129:48 4.58924e-05
48 *127:28 *129:59 0
49 *127:69 *1112:A1 0.000138859
50 *127:69 *129:59 1.13812e-05
*RES
1 *957:Y *129:10 44.5871 
2 *129:10 *129:18 37.2914 
3 *129:18 *1119:A1 41.5007 
4 *129:18 *1116:A1 46.0164 
5 *129:10 *129:48 7.27071 
6 *129:48 *968:A1 38 
7 *129:48 *129:59 23.2443 
8 *129:59 *1114:A1 23 
9 *129:59 *1112:A1 27.4743 
*END

*D_NET *130 0.00865731
*CONN
*I *1097:A1 I *D sky130_fd_sc_hd__mux2_1
*I *967:A2 I *D sky130_fd_sc_hd__o2111a_2
*I *1122:A2 I *D sky130_fd_sc_hd__a21oi_1
*I *958:X O *D sky130_fd_sc_hd__and4b_1
*CAP
1 *1097:A1 0
2 *967:A2 0
3 *1122:A2 0.000243793
4 *958:X 0.000261163
5 *130:40 0.00145894
6 *130:18 0.000781226
7 *130:10 0.00225753
8 *1122:A2 *219:10 4.04303e-05
9 *130:10 *1116:A2 8.62876e-05
10 *130:10 *137:10 0.000133595
11 *130:10 *253:22 9.36134e-05
12 *130:10 *253:44 9.58714e-05
13 *130:10 *376:8 8.71559e-05
14 *130:18 *966:B1 6.17437e-06
15 *130:18 *967:C1 1.76557e-05
16 *130:18 *138:8 0.000707291
17 *130:18 *139:10 0.000139357
18 *130:18 *219:10 9.84794e-05
19 *130:40 *137:10 0.000191399
20 *130:40 *253:22 0.000179981
21 *956:A *1122:A2 0.00014196
22 *967:A1 *1122:A2 0.000246503
23 *30:18 *1122:A2 0.000525417
24 *30:22 *130:40 0.000794858
25 *30:82 *1122:A2 4.79228e-05
26 *124:23 *130:10 2.07086e-05
*RES
1 *958:X *130:10 43.0129 
2 *130:10 *130:18 26.2686 
3 *130:18 *1122:A2 31.7621 
4 *130:18 *967:A2 23 
5 *130:10 *130:40 43.4821 
6 *130:40 *1097:A1 23 
*END

*D_NET *131 0.00130132
*CONN
*I *1276:A I *D sky130_fd_sc_hd__clkbuf_1
*I *959:Y O *D sky130_fd_sc_hd__a2111oi_1
*CAP
1 *1276:A 0.000105852
2 *959:Y 0.000225726
3 *131:8 0.000331578
4 *1276:A *1181:RESET_B 0.000149877
5 *98:53 *1276:A 0.000145163
6 *120:16 *131:8 0.000343121
*RES
1 *959:Y *131:8 42.7229 
2 *131:8 *1276:A 41.0036 
*END

*D_NET *132 0.000676419
*CONN
*I *961:B1 I *D sky130_fd_sc_hd__a31o_1
*I *960:Y O *D sky130_fd_sc_hd__inv_2
*CAP
1 *961:B1 0
2 *960:Y 0.000133438
3 *132:10 0.000133438
4 *132:10 *137:63 0
5 *132:10 *377:27 0.000171796
6 *952:B *132:10 4.2573e-05
7 *116:18 *132:10 5.3304e-05
8 *116:24 *132:10 0.000141869
*RES
1 *960:Y *132:10 41.3557 
2 *132:10 *961:B1 38 
*END

*D_NET *133 0.00155321
*CONN
*I *967:B1 I *D sky130_fd_sc_hd__o2111a_2
*I *961:X O *D sky130_fd_sc_hd__a31o_1
*CAP
1 *967:B1 0
2 *961:X 0.000384909
3 *133:8 0.000384909
4 *133:8 *136:8 0
5 *133:8 *137:63 0.000218268
6 *133:8 *213:35 0
7 *133:8 *266:10 1.7403e-05
8 *958:C *133:8 9.79642e-05
9 *105:20 *133:8 0.000138727
10 *120:22 *133:8 2.9742e-05
11 *120:33 *133:8 6.32792e-05
12 *129:10 *133:8 8.62783e-05
13 *129:48 *133:8 0.000131735
*RES
1 *961:X *133:8 46.9486 
2 *133:8 *967:B1 38 
*END

*D_NET *134 0.00363157
*CONN
*I *1112:A2 I *D sky130_fd_sc_hd__o21ai_1
*I *964:A2 I *D sky130_fd_sc_hd__a22oi_1
*I *962:Y O *D sky130_fd_sc_hd__nand3_1
*CAP
1 *1112:A2 0
2 *964:A2 0
3 *962:Y 0.000152727
4 *134:26 0.000292104
5 *134:12 0.000990802
6 *134:8 0.000851424
7 *134:8 *1191:RESET_B 0.000219672
8 *134:8 *246:46 8.57485e-05
9 *134:8 *256:720 0.000129494
10 *134:12 *1112:B1 0.000281712
11 *134:12 *1203:A 0.000234542
12 *134:12 *229:12 1.84917e-05
13 *134:26 *964:A1 0.000142783
14 *134:26 *229:12 5.75756e-06
15 *962:C *134:8 5.44889e-06
16 *85:10 *134:26 4.73379e-05
17 *113:28 *134:8 5.26052e-05
18 *114:8 *134:8 3.48854e-05
19 *115:14 *134:26 8.6036e-05
*RES
1 *962:Y *134:8 42.7229 
2 *134:8 *134:12 28.485 
3 *134:12 *134:26 35.8621 
4 *134:26 *964:A2 23 
5 *134:12 *1112:A2 23 
*END

*D_NET *135 0.00136321
*CONN
*I *1114:A2 I *D sky130_fd_sc_hd__o21ai_1
*I *964:B1 I *D sky130_fd_sc_hd__a22oi_1
*I *1091:B1 I *D sky130_fd_sc_hd__o21ai_1
*I *963:Y O *D sky130_fd_sc_hd__nand3b_1
*CAP
1 *1114:A2 8.56269e-05
2 *964:B1 6.55223e-05
3 *1091:B1 1.95257e-05
4 *963:Y 0.000146578
5 *135:21 0.000326244
6 *135:6 0.000341199
7 *964:B1 *964:A1 1.68412e-05
8 *135:6 *214:8 9.82196e-05
9 *135:21 *214:8 7.61229e-06
10 *135:21 *375:34 3.32985e-05
11 *938:C1 *135:6 2.95526e-05
12 *1091:A1 *1091:B1 9.61196e-06
13 *115:14 *964:B1 1.84831e-05
14 *127:28 *135:21 2.501e-05
15 *129:59 *1114:A2 0.000139882
16 *129:59 *135:21 0
*RES
1 *963:Y *135:6 26.0036 
2 *135:6 *1091:B1 23.4971 
3 *135:6 *135:21 18.5214 
4 *135:21 *964:B1 39.1186 
5 *135:21 *1114:A2 39.9057 
*END

*D_NET *136 0.00141134
*CONN
*I *967:C1 I *D sky130_fd_sc_hd__o2111a_2
*I *964:Y O *D sky130_fd_sc_hd__a22oi_1
*CAP
1 *967:C1 7.26686e-05
2 *964:Y 0.000274074
3 *136:8 0.000346743
4 *967:C1 *138:8 5.41385e-05
5 *136:8 *213:35 0.000215544
6 *115:22 *136:8 0.000168524
7 *129:48 *136:8 9.66282e-05
8 *129:59 *136:8 0.000165365
9 *130:18 *967:C1 1.76557e-05
10 *133:8 *136:8 0
*RES
1 *964:Y *136:8 46.2443 
2 *136:8 *967:C1 39.5743 
*END

*D_NET *137 0.00560027
*CONN
*I *1094:B1 I *D sky130_fd_sc_hd__a21oi_1
*I *1119:A2 I *D sky130_fd_sc_hd__o31a_1
*I *966:A1 I *D sky130_fd_sc_hd__o21ai_1
*I *1116:A2 I *D sky130_fd_sc_hd__o31a_1
*I *965:X O *D sky130_fd_sc_hd__a21o_1
*CAP
1 *1094:B1 0
2 *1119:A2 0
3 *966:A1 4.36259e-05
4 *1116:A2 0.000172166
5 *965:X 0.00039087
6 *137:63 0.000377368
7 *137:42 0.000841249
8 *137:27 0.00058931
9 *137:10 0.00064484
10 *1116:A2 *948:B1 4.2812e-06
11 *1116:A2 *1116:B1 5.50106e-05
12 *1116:A2 *253:44 8.49226e-05
13 *1116:A2 *376:8 2.16985e-05
14 *137:10 *253:22 5.97009e-05
15 *137:27 *138:8 3.24747e-05
16 *137:42 *138:8 9.58413e-05
17 *137:42 *213:35 0
18 *137:42 *239:55 6.7177e-06
19 *137:63 *960:A 0.000100733
20 *137:63 *961:A2 4.98398e-05
21 *137:63 *1119:A3 0.000139346
22 *137:63 *1119:B1 2.18409e-05
23 *137:63 *213:20 0.000227208
24 *137:63 *216:8 1.35999e-05
25 *137:63 *266:16 0
26 *958:D *1116:A2 0
27 *961:A3 *137:63 3.28357e-06
28 *1116:A1 *1116:A2 2.2599e-05
29 *1116:A3 *1116:A2 5.3304e-05
30 *1119:A1 *137:42 8.4047e-05
31 *1119:A1 *137:63 5.50106e-05
32 *98:30 *137:10 0
33 *105:20 *137:63 3.70094e-05
34 *108:21 *137:10 1.32494e-05
35 *115:28 *137:10 0.000101226
36 *116:10 *137:42 0.000136486
37 *116:18 *137:42 0.000187986
38 *116:18 *137:63 1.76557e-05
39 *116:24 *137:63 5.25997e-05
40 *124:23 *1116:A2 5.50106e-05
41 *124:31 *137:10 0
42 *124:63 *137:63 5.00237e-05
43 *129:18 *137:42 0.000128583
44 *130:10 *1116:A2 8.62876e-05
45 *130:10 *137:10 0.000133595
46 *130:40 *137:10 0.000191399
47 *132:10 *137:63 0
48 *133:8 *137:63 0.000218268
*RES
1 *965:X *137:10 45.3536 
2 *137:10 *1116:A2 41.9771 
3 *137:10 *137:27 16.0979 
4 *137:27 *966:A1 23.8493 
5 *137:27 *137:42 37.8507 
6 *137:42 *1119:A2 23 
7 *137:42 *137:63 40.4607 
8 *137:63 *1094:B1 23 
*END

*D_NET *138 0.001502
*CONN
*I *967:D1 I *D sky130_fd_sc_hd__o2111a_2
*I *966:Y O *D sky130_fd_sc_hd__o21ai_1
*CAP
1 *967:D1 0
2 *966:Y 0.000303384
3 *138:8 0.000303384
4 *138:8 *966:B1 5.48288e-06
5 *967:C1 *138:8 5.41385e-05
6 *130:18 *138:8 0.000707291
7 *137:27 *138:8 3.24747e-05
8 *137:42 *138:8 9.58413e-05
*RES
1 *966:Y *138:8 31.7414 
2 *138:8 *967:D1 23 
*END

*D_NET *139 0.00820559
*CONN
*I *1107:B1 I *D sky130_fd_sc_hd__a211o_1
*I *1110:B I *D sky130_fd_sc_hd__or4_1
*I *1109:A1 I *D sky130_fd_sc_hd__o31ai_1
*I *1104:A I *D sky130_fd_sc_hd__nor2_1
*I *1100:B I *D sky130_fd_sc_hd__or3_1
*I *1101:A1 I *D sky130_fd_sc_hd__o21ai_1
*I *968:A2 I *D sky130_fd_sc_hd__o21ai_1
*I *967:X O *D sky130_fd_sc_hd__o2111a_2
*CAP
1 *1107:B1 9.31927e-05
2 *1110:B 0.000149838
3 *1109:A1 0
4 *1104:A 0
5 *1100:B 5.43738e-05
6 *1101:A1 1.26957e-05
7 *968:A2 0
8 *967:X 0.000172544
9 *139:79 0.000379123
10 *139:65 0.000452571
11 *139:55 0.000619972
12 *139:47 0.000441752
13 *139:36 0.000297233
14 *139:23 0.000541494
15 *139:10 0.000596743
16 *1100:B *1188:CLK 2.64616e-05
17 *1107:B1 *1110:D 5.58003e-05
18 *1107:B1 *219:77 5.58003e-05
19 *1107:B1 *225:10 5.90936e-05
20 *1110:B *219:77 4.05745e-05
21 *139:10 *219:10 0.000166051
22 *139:23 *936:B_N 0.000123584
23 *139:23 *219:10 0.000462017
24 *139:23 *219:22 0.00022431
25 *139:23 *219:28 8.94487e-05
26 *139:23 *355:84 3.94619e-05
27 *139:36 *219:28 0.000151907
28 *139:36 *219:45 0.000115022
29 *139:36 *355:84 0.00026916
30 *139:47 *219:45 0.000181858
31 *139:47 *224:10 8.62876e-05
32 *139:47 *355:84 0.000167443
33 *139:55 *1109:A2 3.32677e-05
34 *139:55 *227:12 7.53384e-06
35 *139:65 *1108:A2 2.50118e-05
36 *139:65 *219:45 6.07611e-06
37 *139:65 *219:60 7.01192e-05
38 *139:65 *219:68 0.000316273
39 *139:79 *224:10 2.60152e-05
40 *139:79 *224:25 3.95873e-05
41 *139:79 *225:10 8.57577e-05
42 *1101:B1 *1101:A1 7.1813e-06
43 *1109:B1 *139:55 1.72227e-05
44 *1110:A *1107:B1 2.39231e-05
45 *1110:A *1110:B 0.000100486
46 *1110:A *139:79 0.000196872
47 *98:8 *1101:A1 2.7418e-05
48 *99:134 *139:65 6.94189e-05
49 *102:30 *1107:B1 0
50 *102:30 *139:47 4.9224e-05
51 *102:30 *139:79 1.65305e-05
52 *126:265 *139:55 4.90763e-05
53 *127:16 *139:65 1.56156e-05
54 *127:69 *139:23 6.92847e-05
55 *129:48 *139:10 0.000166051
56 *129:59 *139:10 1.13812e-05
57 *129:59 *139:23 0.0005111
58 *130:18 *139:10 0.000139357
*RES
1 *967:X *139:10 41.8321 
2 *139:10 *968:A2 38 
3 *139:10 *139:23 12.6564 
4 *139:23 *1101:A1 38.347 
5 *139:23 *139:36 3.66643 
6 *139:36 *1100:B 38.6214 
7 *139:36 *139:47 4.01857 
8 *139:47 *139:55 18.045 
9 *139:55 *139:65 37.8921 
10 *139:65 *1104:A 23 
11 *139:55 *1109:A1 23 
12 *139:47 *139:79 3.58357 
13 *139:79 *1110:B 40.0507 
14 *139:79 *1107:B1 40.5893 
*END

*D_NET *140 0.000817088
*CONN
*I *973:A1 I *D sky130_fd_sc_hd__a22o_1
*I *974:A1 I *D sky130_fd_sc_hd__o221a_2
*I *969:Y O *D sky130_fd_sc_hd__inv_2
*CAP
1 *973:A1 0.000116817
2 *974:A1 2.47322e-05
3 *969:Y 0.000134357
4 *140:10 0.000141549
5 *140:8 0.000134357
6 *973:A1 *973:A2 9.74722e-05
7 *973:A1 *974:B1 1.37232e-05
8 *973:A1 *145:10 5.67058e-05
9 *974:A1 *973:A2 5.50049e-05
10 *140:8 *255:35 4.23714e-05
11 *140:8 *262:18 0
*RES
1 *969:Y *140:8 40.2579 
2 *140:8 *140:10 15 
3 *140:10 *974:A1 23.6214 
4 *140:10 *973:A1 26.0243 
*END

*D_NET *141 0.00335628
*CONN
*I *973:B2 I *D sky130_fd_sc_hd__a22o_1
*I *972:A2 I *D sky130_fd_sc_hd__o211a_1
*I *970:Y O *D sky130_fd_sc_hd__inv_2
*CAP
1 *973:B2 0
2 *972:A2 0
3 *970:Y 0
4 *141:31 0.000395327
5 *141:18 0.000743784
6 *141:4 0.00113911
7 *141:18 *972:A1 0.000186329
8 *141:18 *972:B1 1.12796e-05
9 *141:18 *145:26 0.000193754
10 *141:18 *242:99 0.000148298
11 *141:18 *324:18 0.000102123
12 *141:18 *325:97 4.68426e-05
13 *141:31 *1046:A 9.84794e-05
14 *141:31 *191:8 0.000104489
15 *141:31 *254:10 0.00010018
16 *141:31 *254:14 0
17 *56:8 *141:31 8.62783e-05
*RES
1 *970:Y *141:4 23 
2 *141:4 *141:18 43.7543 
3 *141:18 *972:A2 23 
4 *141:4 *141:31 38.6379 
5 *141:31 *973:B2 23 
*END

*D_NET *142 0.00110311
*CONN
*I *972:C1 I *D sky130_fd_sc_hd__o211a_1
*I *971:Y O *D sky130_fd_sc_hd__inv_2
*CAP
1 *972:C1 2.59875e-05
2 *971:Y 0.000257577
3 *142:10 0.000283564
4 *972:C1 *972:B1 5.58003e-05
5 *972:C1 *145:26 1.59094e-05
6 *142:10 *262:18 0.000370553
7 *142:10 *325:97 1.84917e-05
8 *142:10 *351:14 7.52305e-05
*RES
1 *971:Y *142:10 43.6964 
2 *142:10 *972:C1 38.6214 
*END

*D_NET *143 0.000387351
*CONN
*I *974:B1 I *D sky130_fd_sc_hd__o221a_2
*I *972:X O *D sky130_fd_sc_hd__o211a_1
*CAP
1 *974:B1 8.72044e-05
2 *972:X 8.17907e-05
3 *143:8 0.000168995
4 *974:B1 *973:A2 1.24376e-05
5 *974:B1 *974:B2 2.32004e-05
6 *143:8 *145:10 0
7 *143:8 *262:18 0
8 *973:A1 *974:B1 1.37232e-05
*RES
1 *972:X *143:8 39.2014 
2 *143:8 *974:B1 39.9523 
*END

*D_NET *144 0.000587809
*CONN
*I *974:B2 I *D sky130_fd_sc_hd__o221a_2
*I *973:X O *D sky130_fd_sc_hd__a22o_1
*CAP
1 *974:B2 0.000169151
2 *973:X 0.000169151
3 *974:B2 *973:A2 0.000226306
4 *974:B1 *974:B2 2.32004e-05
*RES
1 *973:X *974:B2 49.5007 
*END

*D_NET *145 0.00676677
*CONN
*I *975:S I *D sky130_fd_sc_hd__mux2_1
*I *977:S I *D sky130_fd_sc_hd__mux2_1
*I *979:S I *D sky130_fd_sc_hd__mux2_1
*I *1045:S I *D sky130_fd_sc_hd__mux2_1
*I *1043:S I *D sky130_fd_sc_hd__mux2_1
*I *974:X O *D sky130_fd_sc_hd__o221a_2
*CAP
1 *975:S 0.000178098
2 *977:S 0
3 *979:S 0.000358157
4 *1045:S 0
5 *1043:S 0
6 *974:X 0.000271313
7 *145:55 0.000616625
8 *145:40 0.00100963
9 *145:26 0.000578097
10 *145:12 0.000578097
11 *145:10 0.000484258
12 *975:S *300:6 0.000102389
13 *975:S *300:16 5.56356e-05
14 *975:S *324:116 9.89307e-05
15 *979:S *979:A0 0.0002263
16 *145:10 *1156:RESET_B 0.000247312
17 *145:10 *242:99 9.04798e-05
18 *145:10 *254:14 0
19 *145:26 *972:B1 3.00511e-05
20 *145:26 *1043:A0 1.92324e-05
21 *145:26 *1155:RESET_B 3.81356e-05
22 *145:26 *1236:A 5.3304e-05
23 *145:40 *1156:RESET_B 6.66613e-05
24 *145:40 *242:99 0.000106005
25 *145:40 *256:38 0.000185626
26 *145:40 *256:40 0.000419865
27 *145:40 *325:97 0.00043394
28 *145:55 *146:8 4.334e-05
29 *145:55 *256:36 0
30 *145:55 *256:38 0
31 *145:55 *324:106 0
32 *145:55 *324:116 3.70094e-05
33 *972:C1 *145:26 1.59094e-05
34 *973:A1 *145:10 5.67058e-05
35 *31:8 *145:55 0.000171906
36 *141:18 *145:26 0.000193754
37 *143:8 *145:10 0
*RES
1 *974:X *145:10 43.3443 
2 *145:10 *145:12 15 
3 *145:12 *145:26 39.3836 
4 *145:26 *1043:S 23 
5 *145:12 *1045:S 23 
6 *145:10 *145:40 23.9486 
7 *145:40 *979:S 29.815 
8 *145:40 *145:55 38.3064 
9 *145:55 *977:S 23 
10 *145:55 *975:S 26.9564 
*END

*D_NET *146 0.000559976
*CONN
*I *976:A I *D sky130_fd_sc_hd__clkbuf_1
*I *975:X O *D sky130_fd_sc_hd__mux2_1
*CAP
1 *976:A 0.000189923
2 *975:X 5.44451e-05
3 *146:8 0.000244368
4 *146:8 *324:106 2.79004e-05
5 *145:55 *146:8 4.334e-05
*RES
1 *975:X *146:8 39.2014 
2 *146:8 *976:A 41.3764 
*END

*D_NET *147 0.000198429
*CONN
*I *978:A I *D sky130_fd_sc_hd__clkbuf_1
*I *977:X O *D sky130_fd_sc_hd__mux2_1
*CAP
1 *978:A 9.92145e-05
2 *977:X 9.92145e-05
3 *978:A *1224:A 0
*RES
1 *977:X *978:A 47.9471 
*END

*D_NET *148 0.00147817
*CONN
*I *980:A I *D sky130_fd_sc_hd__clkbuf_1
*I *979:X O *D sky130_fd_sc_hd__mux2_1
*CAP
1 *980:A 0
2 *979:X 0.000715194
3 *148:14 0.000715194
4 *148:14 *1164:CLK 0
5 *148:14 *197:20 1.12863e-05
6 *148:14 *242:10 2.6676e-05
7 *148:14 *242:86 9.81739e-06
*RES
1 *979:X *148:14 47.8393 
2 *148:14 *980:A 38 
*END

*D_NET *149 0.00120305
*CONN
*I *985:A1 I *D sky130_fd_sc_hd__a22o_1
*I *986:A1 I *D sky130_fd_sc_hd__o221a_2
*I *981:Y O *D sky130_fd_sc_hd__inv_2
*CAP
1 *985:A1 0
2 *986:A1 0.000296423
3 *981:Y 0.000166827
4 *149:6 0.000463251
5 *986:A1 *985:A2 5.56279e-05
6 *986:A1 *986:A2 3.27678e-05
7 *986:A1 *986:B1 1.28818e-05
8 *986:A1 *986:B2 6.37151e-05
9 *986:A1 *154:21 2.45549e-06
10 *149:6 *270:52 5.3304e-05
11 *93:277 *986:A1 5.58003e-05
*RES
1 *981:Y *149:6 25.5271 
2 *149:6 *986:A1 28.4064 
3 *149:6 *985:A1 23 
*END

*D_NET *150 0.00139876
*CONN
*I *985:B1 I *D sky130_fd_sc_hd__a22o_1
*I *984:A1 I *D sky130_fd_sc_hd__o211a_1
*I *982:Y O *D sky130_fd_sc_hd__inv_2
*CAP
1 *985:B1 0
2 *984:A1 0.000169404
3 *982:Y 0
4 *150:23 0.000347574
5 *150:4 0.000516978
6 *984:A1 *152:10 2.97185e-05
7 *984:A1 *270:30 5.82853e-05
8 *984:A1 *328:14 1.12796e-05
9 *150:23 *152:10 5.82853e-05
10 *150:23 *270:52 0.000170807
11 *150:23 *281:29 3.64246e-05
*RES
1 *982:Y *150:4 23 
2 *150:4 *984:A1 26.3764 
3 *150:4 *150:23 36.7114 
4 *150:23 *985:B1 23 
*END

*D_NET *151 0.000385489
*CONN
*I *984:C1 I *D sky130_fd_sc_hd__o211a_1
*I *983:Y O *D sky130_fd_sc_hd__inv_2
*CAP
1 *984:C1 0.000109683
2 *983:Y 6.97157e-05
3 *151:8 0.000179399
4 *984:C1 *270:30 3.28357e-06
5 *151:8 *1134:RESET_B 2.34077e-05
*RES
1 *983:Y *151:8 39.2014 
2 *151:8 *984:C1 40.4443 
*END

*D_NET *152 0.000643789
*CONN
*I *986:B1 I *D sky130_fd_sc_hd__o221a_2
*I *984:X O *D sky130_fd_sc_hd__o211a_1
*CAP
1 *986:B1 5.62361e-06
2 *984:X 0.000230835
3 *152:10 0.000236459
4 *986:B1 *986:B2 1.28818e-05
5 *152:10 *1136:CLK 4.70114e-05
6 *984:A1 *152:10 2.97185e-05
7 *986:A1 *986:B1 1.28818e-05
8 *93:277 *152:10 1.0092e-05
9 *150:23 *152:10 5.82853e-05
*RES
1 *984:X *152:10 41.8321 
2 *152:10 *986:B1 38.1502 
*END

*D_NET *153 0.000389088
*CONN
*I *986:B2 I *D sky130_fd_sc_hd__o221a_2
*I *985:X O *D sky130_fd_sc_hd__a22o_1
*CAP
1 *986:B2 6.77852e-05
2 *985:X 6.77852e-05
3 *986:B2 *986:A2 0.000118635
4 *986:A1 *986:B2 6.37151e-05
5 *986:B1 *986:B2 1.28818e-05
6 *93:277 *986:B2 5.82853e-05
*RES
1 *985:X *986:B2 48.5479 
*END

*D_NET *154 0.00608398
*CONN
*I *989:S I *D sky130_fd_sc_hd__mux2_1
*I *1003:S I *D sky130_fd_sc_hd__mux2_1
*I *1005:S I *D sky130_fd_sc_hd__mux2_1
*I *1007:S I *D sky130_fd_sc_hd__mux2_1
*I *987:S I *D sky130_fd_sc_hd__mux2_1
*I *986:X O *D sky130_fd_sc_hd__o221a_2
*CAP
1 *989:S 0
2 *1003:S 4.32907e-05
3 *1005:S 0
4 *1007:S 0.000398763
5 *987:S 0.000287311
6 *986:X 0
7 *154:33 0.000669817
8 *154:27 0.000582063
9 *154:21 0.000585685
10 *154:4 0.000605278
11 *987:S *986:A2 3.28357e-06
12 *987:S *987:A1 0.000136191
13 *987:S *259:33 0.000176248
14 *1003:S *302:6 2.4754e-05
15 *1003:S *302:23 4.00259e-06
16 *1007:S *1007:A0 0.00027408
17 *1007:S *209:8 6.43792e-05
18 *1007:S *246:89 0.000223805
19 *1007:S *325:112 0.000336304
20 *154:21 *1136:CLK 0.000546583
21 *154:21 *1140:CLK 1.14452e-05
22 *154:21 *270:30 0.000334169
23 *154:27 *1140:CLK 0.000162422
24 *154:27 *270:30 8.62876e-05
25 *154:33 *302:6 4.95081e-05
26 *154:33 *302:23 0.00014196
27 *154:33 *324:120 0
28 *154:33 *325:112 6.07611e-06
29 *986:A1 *154:21 2.45549e-06
30 *40:10 *154:27 4.58924e-05
31 *40:10 *154:33 9.84851e-05
32 *126:228 *1007:S 9.51169e-05
33 *126:228 *154:33 8.83237e-05
*RES
1 *986:X *154:4 23 
2 *154:4 *987:S 28.9036 
3 *154:4 *154:21 23.1614 
4 *154:21 *154:27 20.5721 
5 *154:27 *154:33 21.1936 
6 *154:33 *1007:S 49.2479 
7 *154:33 *1005:S 38 
8 *154:27 *1003:S 24.1186 
9 *154:21 *989:S 38 
*END

*D_NET *155 0.000237387
*CONN
*I *988:A I *D sky130_fd_sc_hd__clkbuf_1
*I *987:X O *D sky130_fd_sc_hd__mux2_1
*CAP
1 *988:A 0.000118694
2 *987:X 0.000118694
*RES
1 *987:X *988:A 48.4236 
*END

*D_NET *156 0.00110537
*CONN
*I *990:A I *D sky130_fd_sc_hd__clkbuf_1
*I *989:X O *D sky130_fd_sc_hd__mux2_1
*CAP
1 *990:A 0
2 *989:X 0.000318635
3 *156:10 0.000318635
4 *156:10 *1134:RESET_B 0.000141038
5 *156:10 *1173:RESET_B 0.000220511
6 *156:10 *247:62 0.00010655
*RES
1 *989:X *156:10 44.7736 
2 *156:10 *990:A 38 
*END

*D_NET *157 0.00184795
*CONN
*I *996:A1 I *D sky130_fd_sc_hd__a22o_1
*I *997:A1 I *D sky130_fd_sc_hd__o221a_2
*I *992:Y O *D sky130_fd_sc_hd__inv_2
*CAP
1 *996:A1 0.000315281
2 *997:A1 0.000324254
3 *992:Y 0
4 *157:6 0.000639534
5 *996:A1 *1239:A 0
6 *996:A1 *158:23 5.50106e-05
7 *996:A1 *303:68 0.000185434
8 *996:A1 *335:12 6.07611e-06
9 *997:A1 *994:A 0
10 *997:A1 *158:23 0.000230715
11 *997:A1 *159:8 2.34077e-05
12 *997:A1 *160:10 2.193e-05
13 *997:A1 *335:12 4.63038e-05
*RES
1 *992:Y *157:6 38 
2 *157:6 *997:A1 44.67 
3 *157:6 *996:A1 44.09 
*END

*D_NET *158 0.00241444
*CONN
*I *996:B1 I *D sky130_fd_sc_hd__a22o_1
*I *995:A1 I *D sky130_fd_sc_hd__o211a_1
*I *993:Y O *D sky130_fd_sc_hd__inv_2
*CAP
1 *996:B1 0
2 *995:A1 7.78907e-05
3 *993:Y 0
4 *158:23 0.000344665
5 *158:4 0.000422556
6 *995:A1 *995:A2 3.86731e-05
7 *995:A1 *995:C1 0.000123241
8 *995:A1 *160:10 9.91548e-05
9 *995:A1 *162:6 1.73995e-05
10 *995:A1 *303:68 0.000100477
11 *158:23 *995:C1 7.61229e-06
12 *158:23 *1170:RESET_B 0.000215252
13 *158:23 *160:10 0.000353667
14 *158:23 *245:76 0.000236881
15 *158:23 *314:28 7.42809e-05
16 *158:23 *335:12 1.69668e-05
17 *996:A1 *158:23 5.50106e-05
18 *997:A1 *158:23 0.000230715
*RES
1 *993:Y *158:4 23 
2 *158:4 *995:A1 26.0243 
3 *158:4 *158:23 40.7093 
4 *158:23 *996:B1 23 
*END

*D_NET *159 0.00102997
*CONN
*I *995:C1 I *D sky130_fd_sc_hd__o211a_1
*I *994:Y O *D sky130_fd_sc_hd__inv_2
*CAP
1 *995:C1 0.000242186
2 *994:Y 6.96398e-05
3 *159:8 0.000311826
4 *995:C1 *995:B1 0.000101866
5 *995:C1 *998:A0 0.000102971
6 *995:C1 *303:47 1.21972e-05
7 *995:C1 *303:68 1.358e-05
8 *159:8 *303:68 2.14404e-05
9 *995:A1 *995:C1 0.000123241
10 *997:A1 *159:8 2.34077e-05
11 *158:23 *995:C1 7.61229e-06
*RES
1 *994:Y *159:8 39.2014 
2 *159:8 *995:C1 43.4271 
*END

*D_NET *160 0.00147649
*CONN
*I *997:B1 I *D sky130_fd_sc_hd__o221a_2
*I *995:X O *D sky130_fd_sc_hd__o211a_1
*CAP
1 *997:B1 0
2 *995:X 0.00025117
3 *160:10 0.00025117
4 *160:10 *997:B2 4.1018e-05
5 *160:10 *162:6 0.000452822
6 *995:A1 *160:10 9.91548e-05
7 *997:A1 *160:10 2.193e-05
8 *93:232 *160:10 5.55743e-06
9 *158:23 *160:10 0.000353667
*RES
1 *995:X *160:10 31.2909 
2 *160:10 *997:B1 23 
*END

*D_NET *161 0.000766682
*CONN
*I *997:B2 I *D sky130_fd_sc_hd__o221a_2
*I *996:X O *D sky130_fd_sc_hd__a22o_1
*CAP
1 *997:B2 6.00027e-05
2 *996:X 0.00018449
3 *161:8 0.000244493
4 *161:8 *253:22 0
5 *161:8 *314:28 0.000140142
6 *161:8 *335:27 8.62876e-05
7 *93:232 *997:B2 1.02482e-05
8 *160:10 *997:B2 4.1018e-05
*RES
1 *996:X *161:8 42.0186 
2 *161:8 *997:B2 39.6157 
*END

*D_NET *162 0.00614445
*CONN
*I *1000:S I *D sky130_fd_sc_hd__mux2_1
*I *1020:S I *D sky130_fd_sc_hd__mux2_1
*I *1024:S I *D sky130_fd_sc_hd__mux2_1
*I *1022:S I *D sky130_fd_sc_hd__mux2_1
*I *998:S I *D sky130_fd_sc_hd__mux2_1
*I *997:X O *D sky130_fd_sc_hd__o221a_2
*CAP
1 *1000:S 0
2 *1020:S 0.000238168
3 *1024:S 4.50324e-05
4 *1022:S 0.000186988
5 *998:S 0.000104393
6 *997:X 0.000525758
7 *162:27 0.000449281
8 *162:25 0.000649033
9 *162:23 0.000424131
10 *162:6 0.000860678
11 *998:S *995:B1 4.68096e-05
12 *998:S *998:A1 1.61385e-05
13 *1022:S *239:32 0.000233211
14 *1022:S *303:30 6.11867e-05
15 *1024:S *1148:RESET_B 9.84794e-05
16 *162:6 *995:B1 4.53082e-05
17 *162:6 *303:47 5.3304e-05
18 *162:6 *303:68 0.000132734
19 *162:23 *256:377 7.66914e-06
20 *162:23 *303:47 0.000166531
21 *162:25 *256:367 5.26204e-05
22 *162:25 *256:377 7.31726e-05
23 *162:25 *303:30 0.000121018
24 *162:27 *256:367 6.7177e-06
25 *162:27 *303:30 0.000143436
26 *995:A1 *162:6 1.73995e-05
27 *1076:S *1020:S 9.67842e-05
28 *1076:S *162:27 0.00020807
29 *1088:A1 *1020:S 0.000528025
30 *126:69 *1022:S 9.49202e-05
31 *126:69 *162:27 4.6318e-06
32 *160:10 *162:6 0.000452822
*RES
1 *997:X *162:6 31.2443 
2 *162:6 *998:S 25.2371 
3 *162:6 *162:23 20.075 
4 *162:23 *162:25 5.42714 
5 *162:25 *162:27 6.13143 
6 *162:27 *1022:S 43.1371 
7 *162:27 *1024:S 39.0979 
8 *162:25 *1020:S 44.3593 
9 *162:23 *1000:S 38 
*END

*D_NET *163 0.000851327
*CONN
*I *999:A I *D sky130_fd_sc_hd__clkbuf_1
*I *998:X O *D sky130_fd_sc_hd__mux2_1
*CAP
1 *999:A 0
2 *998:X 0.000367656
3 *163:10 0.000367656
4 *30:47 *163:10 0.000110258
5 *37:8 *163:10 5.75756e-06
*RES
1 *998:X *163:10 43.3857 
2 *163:10 *999:A 38 
*END

*D_NET *164 0.000995931
*CONN
*I *1001:A I *D sky130_fd_sc_hd__clkbuf_1
*I *1000:X O *D sky130_fd_sc_hd__mux2_1
*CAP
1 *1001:A 0
2 *1000:X 0.000426383
3 *164:10 0.000426383
4 *30:47 *164:10 0.000143166
*RES
1 *1000:X *164:10 44.3386 
2 *164:10 *1001:A 38 
*END

*D_NET *165 0.000429623
*CONN
*I *1004:A I *D sky130_fd_sc_hd__clkbuf_1
*I *1003:X O *D sky130_fd_sc_hd__mux2_1
*CAP
1 *1004:A 0.000122548
2 *1003:X 0.000122548
3 *1004:A *302:23 0.000184527
*RES
1 *1003:X *1004:A 48.9 
*END

*D_NET *166 0.00119586
*CONN
*I *1006:A I *D sky130_fd_sc_hd__clkbuf_1
*I *1005:X O *D sky130_fd_sc_hd__mux2_1
*CAP
1 *1006:A 0
2 *1005:X 0.00042578
3 *166:16 0.00042578
4 *166:16 *294:10 3.50301e-05
5 *166:16 *299:12 0.000206098
6 *166:16 *324:120 3.78543e-05
7 *41:10 *166:16 6.53192e-05
*RES
1 *1005:X *166:16 47.9014 
2 *166:16 *1006:A 38 
*END

*D_NET *167 0.00171718
*CONN
*I *1008:A I *D sky130_fd_sc_hd__clkbuf_1
*I *1007:X O *D sky130_fd_sc_hd__mux2_1
*CAP
1 *1008:A 0
2 *1007:X 0.000247601
3 *167:10 0.000247601
4 *167:10 *1007:A1 2.64616e-05
5 *167:10 *355:17 1.01436e-05
6 *167:10 *355:19 0.000222366
7 *167:10 *355:31 0.000373828
8 *98:144 *167:10 0.000589182
*RES
1 *1007:X *167:10 46.5136 
2 *167:10 *1008:A 38 
*END

*D_NET *168 0.00199132
*CONN
*I *1014:A1 I *D sky130_fd_sc_hd__o221a_2
*I *1013:A1 I *D sky130_fd_sc_hd__a22o_1
*I *1009:Y O *D sky130_fd_sc_hd__inv_2
*CAP
1 *1014:A1 8.08548e-05
2 *1013:A1 0.00011312
3 *1009:Y 2.17617e-05
4 *168:27 0.000341358
5 *168:6 0.000395385
6 *1013:A1 *1013:B1 0.000194369
7 *1013:A1 *1013:B2 5.56279e-05
8 *1013:A1 *172:10 1.16915e-05
9 *1013:A1 *320:30 5.56356e-05
10 *1013:A1 *341:22 1.14154e-05
11 *1014:A1 *1012:C1 1.24376e-05
12 *1014:A1 *249:37 8.57537e-05
13 *1014:A1 *256:189 0
14 *168:6 *1013:B1 0.000100069
15 *168:6 *320:30 4.21048e-05
16 *168:6 *341:22 3.09058e-05
17 *168:27 *320:47 0.00013449
18 *93:54 *1013:A1 9.91024e-05
19 *93:81 *1014:A1 2.93335e-05
20 *93:81 *168:27 0.000175903
*RES
1 *1009:Y *168:6 24.0979 
2 *168:6 *1013:A1 26.5214 
3 *168:6 *168:27 48.9564 
4 *168:27 *1014:A1 39.8229 
*END

*D_NET *169 0.00229229
*CONN
*I *1012:A1 I *D sky130_fd_sc_hd__o211a_1
*I *1013:B1 I *D sky130_fd_sc_hd__a22o_1
*I *1010:Y O *D sky130_fd_sc_hd__inv_2
*CAP
1 *1012:A1 0.000102031
2 *1013:B1 0.000593059
3 *1010:Y 8.27003e-05
4 *169:8 0.000777791
5 *1012:A1 *171:10 0.000139357
6 *1013:B1 *1065:A 1.37232e-05
7 *1013:B1 *172:10 9.8203e-05
8 *1013:B1 *200:8 0
9 *1013:B1 *256:254 7.81176e-05
10 *1013:B1 *341:22 2.52723e-05
11 *169:8 *256:254 6.57551e-05
12 *1013:A1 *1013:B1 0.000194369
13 *93:54 *1013:B1 0
14 *93:100 *1012:A1 2.18409e-05
15 *168:6 *1013:B1 0.000100069
*RES
1 *1010:Y *169:8 39.9057 
2 *169:8 *1013:B1 48.4193 
3 *169:8 *1012:A1 40.0507 
*END

*D_NET *170 0.000771113
*CONN
*I *1012:C1 I *D sky130_fd_sc_hd__o211a_1
*I *1011:Y O *D sky130_fd_sc_hd__inv_2
*CAP
1 *1012:C1 0.000224328
2 *1011:Y 6.66531e-05
3 *170:8 0.000290981
4 *1012:C1 *171:10 9.81076e-05
5 *170:8 *173:14 0
6 *170:8 *320:47 4.334e-05
7 *1014:A1 *1012:C1 1.24376e-05
8 *93:81 *1012:C1 3.52659e-05
*RES
1 *1011:Y *170:8 39.2014 
2 *170:8 *1012:C1 41.9979 
*END

*D_NET *171 0.0010217
*CONN
*I *1014:B1 I *D sky130_fd_sc_hd__o221a_2
*I *1012:X O *D sky130_fd_sc_hd__o211a_1
*CAP
1 *1014:B1 0
2 *1012:X 0.000178655
3 *171:10 0.000178655
4 *1012:A1 *171:10 0.000139357
5 *1012:C1 *171:10 9.81076e-05
6 *93:81 *171:10 7.34872e-05
7 *93:100 *171:10 0.000353434
*RES
1 *1012:X *171:10 28.4582 
2 *171:10 *1014:B1 23 
*END

*D_NET *172 0.000983847
*CONN
*I *1014:B2 I *D sky130_fd_sc_hd__o221a_2
*I *1013:X O *D sky130_fd_sc_hd__a22o_1
*CAP
1 *1014:B2 0
2 *1013:X 0.00028386
3 *172:10 0.00028386
4 *172:10 *249:27 2.812e-05
5 *172:10 *249:37 0.000135557
6 *172:10 *320:47 0.000133658
7 *1013:A1 *172:10 1.16915e-05
8 *1013:B1 *172:10 9.8203e-05
9 *93:54 *172:10 8.89913e-06
*RES
1 *1013:X *172:10 42.9093 
2 *172:10 *1014:B2 38 
*END

*D_NET *173 0.00591355
*CONN
*I *1041:S I *D sky130_fd_sc_hd__mux2_1
*I *1039:S I *D sky130_fd_sc_hd__mux2_1
*I *1037:S I *D sky130_fd_sc_hd__mux2_1
*I *1017:S I *D sky130_fd_sc_hd__mux2_1
*I *1015:S I *D sky130_fd_sc_hd__mux2_1
*I *1014:X O *D sky130_fd_sc_hd__o221a_2
*CAP
1 *1041:S 0
2 *1039:S 0
3 *1037:S 0
4 *1017:S 0
5 *1015:S 0
6 *1014:X 0.0003165
7 *173:64 0.000642792
8 *173:46 0.000158011
9 *173:38 0.00025623
10 *173:34 0.0011602
11 *173:23 0.00061797
12 *173:16 0.000198779
13 *173:14 0.0003165
14 *173:14 *1143:RESET_B 1.62615e-05
15 *173:14 *256:189 0.000171906
16 *173:14 *319:20 9.36049e-05
17 *173:14 *320:47 0
18 *173:14 *339:16 0
19 *173:23 *1015:A0 1.21972e-05
20 *173:23 *1153:CLK 0.000188977
21 *173:23 *175:8 0.000142636
22 *173:34 *1153:CLK 8.15864e-05
23 *173:34 *1153:RESET_B 4.81382e-05
24 *173:34 *256:254 2.60152e-05
25 *173:34 *256:266 0.000190912
26 *173:38 *325:54 5.82853e-05
27 *173:38 *325:64 0.000189857
28 *173:46 *239:98 5.45644e-05
29 *173:64 *1041:A1 2.01003e-05
30 *173:64 *241:72 0.000354396
31 *173:64 *256:266 0.000342214
32 *173:64 *256:286 0.000220665
33 *93:81 *173:14 3.42479e-05
34 *170:8 *173:14 0
*RES
1 *1014:X *173:14 44.9393 
2 *173:14 *173:16 15 
3 *173:16 *1015:S 23 
4 *173:16 *173:23 4.43286 
5 *173:23 *1017:S 23 
6 *173:23 *173:34 23.7 
7 *173:34 *173:38 17.5271 
8 *173:38 *173:46 33.7079 
9 *173:46 *1037:S 23 
10 *173:38 *1039:S 23 
11 *173:34 *173:64 27.8221 
12 *173:64 *1041:S 23 
*END

*D_NET *174 0.000215809
*CONN
*I *1016:A I *D sky130_fd_sc_hd__clkbuf_1
*I *1015:X O *D sky130_fd_sc_hd__mux2_1
*CAP
1 *1016:A 7.93837e-05
2 *1015:X 7.93837e-05
3 *1016:A *1153:CLK 0
4 *1016:A *175:8 5.70419e-05
*RES
1 *1015:X *1016:A 47.9471 
*END

*D_NET *175 0.00106633
*CONN
*I *1018:A I *D sky130_fd_sc_hd__clkbuf_1
*I *1017:X O *D sky130_fd_sc_hd__mux2_1
*CAP
1 *1018:A 0
2 *1017:X 0.000415674
3 *175:8 0.000415674
4 *175:8 *1015:A0 1.79651e-05
5 *1016:A *175:8 5.70419e-05
6 *43:10 *175:8 1.73399e-05
7 *173:23 *175:8 0.000142636
*RES
1 *1017:X *175:8 30.6643 
2 *175:8 *1018:A 23 
*END

*D_NET *176 0.000693624
*CONN
*I *1021:A I *D sky130_fd_sc_hd__clkbuf_1
*I *1020:X O *D sky130_fd_sc_hd__mux2_1
*CAP
1 *1021:A 0
2 *1020:X 0.000196688
3 *176:8 0.000196688
4 *176:8 *245:8 0.000166522
5 *176:8 *245:63 0
6 *176:8 *256:367 3.56537e-05
7 *176:8 *256:377 5.92e-05
8 *46:8 *176:8 3.88725e-05
*RES
1 *1020:X *176:8 43.075 
2 *176:8 *1021:A 38 
*END

*D_NET *177 0.00103616
*CONN
*I *1023:A I *D sky130_fd_sc_hd__clkbuf_1
*I *1022:X O *D sky130_fd_sc_hd__mux2_1
*CAP
1 *1023:A 0
2 *1022:X 0.000480077
3 *177:14 0.000480077
4 *177:14 *1025:A 7.60051e-05
*RES
1 *1022:X *177:14 45.8921 
2 *177:14 *1023:A 38 
*END

*D_NET *178 0.00104361
*CONN
*I *1025:A I *D sky130_fd_sc_hd__clkbuf_1
*I *1024:X O *D sky130_fd_sc_hd__mux2_1
*CAP
1 *1025:A 0.000312202
2 *1024:X 8.71729e-05
3 *178:8 0.000399375
4 *178:8 *326:80 0.00016885
5 *177:14 *1025:A 7.60051e-05
*RES
1 *1024:X *178:8 40.2579 
2 *178:8 *1025:A 43.8621 
*END

*D_NET *179 0.0014723
*CONN
*I *1030:A1 I *D sky130_fd_sc_hd__a22o_1
*I *1031:A1 I *D sky130_fd_sc_hd__o221a_2
*I *1026:Y O *D sky130_fd_sc_hd__inv_2
*CAP
1 *1030:A1 0.000312156
2 *1031:A1 5.08973e-05
3 *1026:Y 0.000168607
4 *179:6 0.000531661
5 *1030:A1 *1030:A2 0.000132375
6 *1030:A1 *1030:B1 3.91386e-05
7 *1030:A1 *180:25 1.76557e-05
8 *1030:A1 *184:8 2.64616e-05
9 *1031:A1 *1030:A2 9.84851e-05
10 *1031:A1 *1031:B2 2.32004e-05
11 *179:6 *1031:B1 1.28818e-05
12 *1031:C1 *1031:A1 4.00259e-06
13 *1031:C1 *179:6 5.47808e-05
*RES
1 *1026:Y *179:6 26.0036 
2 *179:6 *1031:A1 25.0714 
3 *179:6 *1030:A1 28.4271 
*END

*D_NET *180 0.00181051
*CONN
*I *1030:B2 I *D sky130_fd_sc_hd__a22o_1
*I *1029:A2 I *D sky130_fd_sc_hd__o211a_1
*I *1027:Y O *D sky130_fd_sc_hd__inv_2
*CAP
1 *1030:B2 0
2 *1029:A2 0.00025719
3 *1027:Y 0
4 *180:25 0.00024435
5 *180:4 0.000501539
6 *1029:A2 *1029:A1 6.68617e-05
7 *1029:A2 *1029:B1 0.000336642
8 *1029:A2 *252:23 4.37586e-06
9 *180:25 *1030:A2 7.99385e-05
10 *180:25 *1030:B1 1.41077e-05
11 *180:25 *1158:CLK 3.22879e-05
12 *180:25 *184:20 0.000148362
13 *180:25 *346:27 7.21237e-05
14 *1030:A1 *180:25 1.76557e-05
15 *49:12 *180:25 3.50713e-05
*RES
1 *1027:Y *180:4 23 
2 *180:4 *1029:A2 27.6814 
3 *180:4 *180:25 35.7793 
4 *180:25 *1030:B2 23 
*END

*D_NET *181 0.000957747
*CONN
*I *1029:C1 I *D sky130_fd_sc_hd__o211a_1
*I *1028:Y O *D sky130_fd_sc_hd__inv_2
*CAP
1 *1029:C1 0
2 *1028:Y 0.000136503
3 *181:8 0.000136503
4 *181:8 *1029:B1 0.000463023
5 *181:8 *1033:A 0.000141954
6 *181:8 *346:27 5.50106e-05
7 *1258:A *181:8 2.4754e-05
*RES
1 *1028:Y *181:8 28.4064 
2 *181:8 *1029:C1 23 
*END

*D_NET *182 0.000735687
*CONN
*I *1031:B1 I *D sky130_fd_sc_hd__o221a_2
*I *1029:X O *D sky130_fd_sc_hd__o211a_1
*CAP
1 *1031:B1 8.87109e-06
2 *1029:X 0.000183048
3 *182:10 0.000191919
4 *182:10 *1029:A1 5.50106e-05
5 *182:10 *184:20 0
6 *182:10 *251:6 9.84794e-05
7 *182:10 *251:14 0.0001151
8 *182:10 *252:23 7.03766e-05
9 *179:6 *1031:B1 1.28818e-05
*RES
1 *1029:X *182:10 41.8321 
2 *182:10 *1031:B1 38.1502 
*END

*D_NET *183 0.000641028
*CONN
*I *1031:B2 I *D sky130_fd_sc_hd__o221a_2
*I *1030:X O *D sky130_fd_sc_hd__a22o_1
*CAP
1 *1031:B2 0.000142265
2 *1030:X 0.000142265
3 *1031:B2 *1030:A2 0.000223698
4 *1031:B2 *184:20 9.5877e-05
5 *1031:A1 *1031:B2 2.32004e-05
6 *1031:C1 *1031:B2 1.37232e-05
*RES
1 *1030:X *1031:B2 49.5007 
*END

*D_NET *184 0.00476952
*CONN
*I *1052:S I *D sky130_fd_sc_hd__mux2_1
*I *1034:S I *D sky130_fd_sc_hd__mux2_1
*I *1032:S I *D sky130_fd_sc_hd__mux2_1
*I *1048:S I *D sky130_fd_sc_hd__mux2_1
*I *1050:S I *D sky130_fd_sc_hd__mux2_1
*I *1031:X O *D sky130_fd_sc_hd__o221a_2
*CAP
1 *1052:S 0.000190656
2 *1034:S 0.000115598
3 *1032:S 0
4 *1048:S 0
5 *1050:S 0
6 *1031:X 2.77218e-05
7 *184:65 0.000629995
8 *184:44 0.000192801
9 *184:32 0.000646059
10 *184:20 0.000989582
11 *184:8 0.000887788
12 *184:8 *1030:A2 5.3304e-05
13 *184:20 *1030:A2 7.43025e-06
14 *184:20 *1032:A0 5.25848e-05
15 *184:20 *1158:CLK 0.000135872
16 *184:20 *185:10 0.000185434
17 *184:20 *252:23 1.86869e-05
18 *184:20 *346:27 8.4047e-05
19 *184:32 *1158:RESET_B 0
20 *184:32 *250:29 1.14452e-05
21 *184:32 *313:10 3.70094e-05
22 *184:32 *345:10 5.18956e-05
23 *184:44 *1050:A1 2.95423e-05
24 *184:44 *253:58 1.13812e-05
25 *184:65 *1034:A1 0
26 *184:65 *251:14 0
27 *184:65 *346:27 0.000139982
28 *1030:A1 *184:8 2.64616e-05
29 *1031:B2 *184:20 9.5877e-05
30 *180:25 *184:20 0.000148362
31 *182:10 *184:20 0
*RES
1 *1031:X *184:8 38.6214 
2 *184:8 *184:20 26.0614 
3 *184:20 *184:32 37.5607 
4 *184:32 *184:44 33.5214 
5 *184:44 *1050:S 23 
6 *184:32 *1048:S 23 
7 *184:20 *1032:S 23 
8 *184:8 *184:65 6.19357 
9 *184:65 *1034:S 40.0507 
10 *184:65 *1052:S 41.3143 
*END

*D_NET *185 0.00112476
*CONN
*I *1033:A I *D sky130_fd_sc_hd__clkbuf_1
*I *1032:X O *D sky130_fd_sc_hd__mux2_1
*CAP
1 *1033:A 3.86226e-05
2 *1032:X 0.000273782
3 *185:10 0.000312405
4 *185:10 *250:29 0
5 *1258:A *1033:A 9.84851e-05
6 *49:12 *185:10 7.40736e-05
7 *181:8 *1033:A 0.000141954
8 *184:20 *185:10 0.000185434
*RES
1 *1032:X *185:10 42.3086 
2 *185:10 *1033:A 39.5743 
*END

*D_NET *186 0.00106685
*CONN
*I *1035:A I *D sky130_fd_sc_hd__clkbuf_1
*I *1034:X O *D sky130_fd_sc_hd__mux2_1
*CAP
1 *1035:A 0.000343146
2 *1034:X 3.95568e-05
3 *186:8 0.000382703
4 *1035:A *1150:CLK 7.87147e-05
5 *1035:A *240:50 2.95526e-05
6 *186:8 *240:67 8.57577e-05
7 *186:8 *320:22 8.57577e-05
8 *1150:D *1035:A 2.16575e-05
*RES
1 *1034:X *186:8 39.2014 
2 *186:8 *1035:A 43.1579 
*END

*D_NET *187 0.00018566
*CONN
*I *1038:A I *D sky130_fd_sc_hd__clkbuf_1
*I *1037:X O *D sky130_fd_sc_hd__mux2_1
*CAP
1 *1038:A 6.49299e-05
2 *1037:X 6.49299e-05
3 *1038:A *239:98 5.58003e-05
*RES
1 *1037:X *1038:A 47.4707 
*END

*D_NET *188 0.000967877
*CONN
*I *1040:A I *D sky130_fd_sc_hd__clkbuf_1
*I *1039:X O *D sky130_fd_sc_hd__mux2_1
*CAP
1 *1040:A 0
2 *1039:X 0.000301051
3 *188:10 0.000301051
4 *188:10 *1235:A 0.000167969
5 *188:10 *308:10 0.000144501
6 *188:10 *325:64 5.3304e-05
*RES
1 *1039:X *188:10 29.8564 
2 *188:10 *1040:A 23 
*END

*D_NET *189 0.000429819
*CONN
*I *1042:A I *D sky130_fd_sc_hd__clkbuf_1
*I *1041:X O *D sky130_fd_sc_hd__mux2_1
*CAP
1 *1042:A 0.000214909
2 *1041:X 0.000214909
*RES
1 *1041:X *1042:A 49.3764 
*END

*D_NET *190 0.000413203
*CONN
*I *1044:A I *D sky130_fd_sc_hd__clkbuf_1
*I *1043:X O *D sky130_fd_sc_hd__mux2_1
*CAP
1 *1044:A 0.000105138
2 *1043:X 0.000105138
3 *1044:A *253:72 0.000202928
*RES
1 *1043:X *1044:A 48.9 
*END

*D_NET *191 0.000978575
*CONN
*I *1046:A I *D sky130_fd_sc_hd__clkbuf_1
*I *1045:X O *D sky130_fd_sc_hd__mux2_1
*CAP
1 *1046:A 0.000115541
2 *1045:X 0.000145134
3 *191:8 0.000260675
4 *1046:A *254:10 2.4754e-05
5 *191:8 *1045:A1 3.88725e-05
6 *191:8 *254:14 0.000104352
7 *56:8 *191:8 8.62783e-05
8 *141:31 *1046:A 9.84794e-05
9 *141:31 *191:8 0.000104489
*RES
1 *1045:X *191:8 42.0186 
2 *191:8 *1046:A 40.5686 
*END

*D_NET *192 0.000876731
*CONN
*I *1049:A I *D sky130_fd_sc_hd__clkbuf_1
*I *1048:X O *D sky130_fd_sc_hd__mux2_1
*CAP
1 *1049:A 6.29779e-05
2 *1048:X 0.000265002
3 *192:8 0.00032798
4 *1049:A *250:14 7.88926e-05
5 *192:8 *920:C 0
6 *192:8 *342:8 0
7 *192:8 *345:10 0
8 *58:8 *192:8 0.000141879
*RES
1 *1048:X *192:8 43.075 
2 *192:8 *1049:A 39.5743 
*END

*D_NET *193 0.000164339
*CONN
*I *1051:A I *D sky130_fd_sc_hd__clkbuf_1
*I *1050:X O *D sky130_fd_sc_hd__mux2_1
*CAP
1 *1051:A 8.21696e-05
2 *1050:X 8.21696e-05
*RES
1 *1050:X *1051:A 47.4707 
*END

*D_NET *194 0.00115039
*CONN
*I *1053:A I *D sky130_fd_sc_hd__clkbuf_1
*I *1052:X O *D sky130_fd_sc_hd__mux2_1
*CAP
1 *1053:A 0
2 *1052:X 0.000281783
3 *194:10 0.000281783
4 *194:10 *272:12 0.000185371
5 *194:10 *326:36 3.28357e-06
6 *194:10 *326:53 8.26478e-05
7 *194:10 *341:37 0.000315524
*RES
1 *1052:X *194:10 30.3329 
2 *194:10 *1053:A 23 
*END

*D_NET *195 0.00147268
*CONN
*I *1055:A I *D sky130_fd_sc_hd__clkbuf_1
*I *1054:X O *D sky130_fd_sc_hd__mux2_1
*CAP
1 *1055:A 0
2 *1054:X 0.000298971
3 *195:10 0.000298971
4 *195:10 *290:6 5.82853e-05
5 *195:10 *324:120 0.000259056
6 *195:10 *325:112 0.000557396
*RES
1 *1054:X *195:10 46.1614 
2 *195:10 *1055:A 38 
*END

*D_NET *196 0.000301988
*CONN
*I *1057:A I *D sky130_fd_sc_hd__clkbuf_1
*I *1056:X O *D sky130_fd_sc_hd__mux2_1
*CAP
1 *1057:A 0
2 *1056:X 7.94109e-05
3 *196:8 7.94109e-05
4 *196:8 *243:92 0.000143166
*RES
1 *1056:X *196:8 39.9057 
2 *196:8 *1057:A 38 
*END

*D_NET *197 0.00160087
*CONN
*I *1059:A I *D sky130_fd_sc_hd__clkbuf_1
*I *1058:X O *D sky130_fd_sc_hd__mux2_1
*CAP
1 *1059:A 0
2 *1058:X 0.000633035
3 *197:20 0.000633035
4 *197:20 *1163:RESET_B 0.000202775
5 *197:20 *1164:RESET_B 0.00012074
6 *197:20 *243:31 0
7 *63:10 *197:20 0
8 *148:14 *197:20 1.12863e-05
*RES
1 *1058:X *197:20 48.15 
2 *197:20 *1059:A 38 
*END

*D_NET *198 0.000613112
*CONN
*I *1061:A I *D sky130_fd_sc_hd__clkbuf_1
*I *1060:X O *D sky130_fd_sc_hd__mux2_1
*CAP
1 *1061:A 0
2 *1060:X 0.000237192
3 *198:8 0.000237192
4 *198:8 *1164:RESET_B 0
5 *198:8 *239:59 0
6 *198:8 *243:31 0
7 *198:8 *367:12 0
8 *198:8 *367:23 0.000138727
*RES
1 *1060:X *198:8 42.7229 
2 *198:8 *1061:A 38 
*END

*D_NET *199 0.000160241
*CONN
*I *1063:A I *D sky130_fd_sc_hd__clkbuf_1
*I *1062:X O *D sky130_fd_sc_hd__mux2_1
*CAP
1 *1063:A 7.39017e-05
2 *1062:X 7.39017e-05
3 *126:22 *1063:A 1.24376e-05
*RES
1 *1062:X *1063:A 47.4707 
*END

*D_NET *200 0.000607177
*CONN
*I *1065:A I *D sky130_fd_sc_hd__clkbuf_1
*I *1064:X O *D sky130_fd_sc_hd__mux2_1
*CAP
1 *1065:A 0.000179693
2 *1064:X 7.63852e-05
3 *200:8 0.000256079
4 *1065:A *1166:CLK 4.00259e-06
5 *200:8 *291:21 0
6 *1013:B1 *1065:A 1.37232e-05
7 *1013:B1 *200:8 0
8 *1166:D *1065:A 7.72936e-05
*RES
1 *1064:X *200:8 39.2014 
2 *200:8 *1065:A 41.2521 
*END

*D_NET *201 0.000446904
*CONN
*I *1067:A I *D sky130_fd_sc_hd__clkbuf_1
*I *1066:X O *D sky130_fd_sc_hd__mux2_1
*CAP
1 *1067:A 0.000113215
2 *1066:X 6.97157e-05
3 *201:8 0.00018293
4 *1067:A *278:8 5.76359e-05
5 *201:8 *324:81 2.34077e-05
*RES
1 *1066:X *201:8 39.2014 
2 *201:8 *1067:A 40.7757 
*END

*D_NET *202 0.000658516
*CONN
*I *1250:A I *D sky130_fd_sc_hd__dlygate4sd3_1
*I *1068:X O *D sky130_fd_sc_hd__mux2_1
*CAP
1 *1250:A 6.90719e-05
2 *1068:X 6.90719e-05
3 *1250:A *1068:A0 0.000193975
4 *1250:A *325:50 0.000326398
*RES
1 *1068:X *1250:A 49.9771 
*END

*D_NET *203 0.000892463
*CONN
*I *1071:A I *D sky130_fd_sc_hd__clkbuf_1
*I *1070:X O *D sky130_fd_sc_hd__mux2_1
*CAP
1 *1071:A 0
2 *1070:X 0.000345005
3 *203:10 0.000345005
4 *203:10 *1169:CLK 0
5 *203:10 *303:12 0.000146822
6 *203:10 *319:10 0
7 *69:8 *203:10 5.56306e-05
*RES
1 *1070:X *203:10 44.2971 
2 *203:10 *1071:A 38 
*END

*D_NET *204 0.000984055
*CONN
*I *1073:A I *D sky130_fd_sc_hd__clkbuf_1
*I *1072:X O *D sky130_fd_sc_hd__mux2_1
*CAP
1 *1073:A 7.67927e-05
2 *1072:X 0.000289458
3 *204:10 0.000366251
4 *204:10 *245:63 0.000170413
5 *204:10 *245:76 2.53488e-05
6 *1170:D *1073:A 5.5792e-05
*RES
1 *1072:X *204:10 42.785 
2 *204:10 *1073:A 39.5743 
*END

*D_NET *205 0.00217128
*CONN
*I *1075:A I *D sky130_fd_sc_hd__clkbuf_1
*I *1074:X O *D sky130_fd_sc_hd__mux2_1
*CAP
1 *1075:A 0.000137978
2 *1074:X 0.000585635
3 *205:10 0.000723613
4 *1075:A *1223:A 5.58003e-05
5 *205:10 *324:81 0.000166595
6 *205:10 *362:14 0.000453076
7 *205:10 *363:38 1.01436e-05
8 *71:8 *205:10 3.84404e-05
9 *102:54 *205:10 0
10 *102:64 *205:10 0
*RES
1 *1074:X *205:10 49.7036 
2 *205:10 *1075:A 40.5271 
*END

*D_NET *206 0.000758304
*CONN
*I *1208:A I *D sky130_fd_sc_hd__dlygate4sd3_1
*I *1076:X O *D sky130_fd_sc_hd__mux2_1
*CAP
1 *1208:A 0
2 *1076:X 0.000240113
3 *206:10 0.000240113
4 *206:10 *303:30 4.58924e-05
5 *1088:A1 *206:10 0.000232185
*RES
1 *1076:X *206:10 42.4329 
2 *206:10 *1208:A 38 
*END

*D_NET *207 0.000290336
*CONN
*I *1079:A I *D sky130_fd_sc_hd__clkbuf_1
*I *1078:X O *D sky130_fd_sc_hd__mux2_1
*CAP
1 *1079:A 0.000145168
2 *1078:X 0.000145168
*RES
1 *1078:X *1079:A 48.5686 
*END

*D_NET *208 0.000509401
*CONN
*I *1081:A I *D sky130_fd_sc_hd__clkbuf_1
*I *1080:X O *D sky130_fd_sc_hd__mux2_1
*CAP
1 *1081:A 0
2 *1080:X 0.00017334
3 *208:10 0.00017334
4 *208:10 *1175:RESET_B 0.000102389
5 *208:10 *299:12 6.03323e-05
*RES
1 *1080:X *208:10 41.0036 
2 *208:10 *1081:A 38 
*END

*D_NET *209 0.00180555
*CONN
*I *1083:A I *D sky130_fd_sc_hd__clkbuf_1
*I *1082:X O *D sky130_fd_sc_hd__mux2_1
*CAP
1 *1083:A 0.000555305
2 *1082:X 0.000127213
3 *209:8 0.000682518
4 *1083:A *1175:CLK 0.000137525
5 *209:8 *325:112 6.43796e-05
6 *1007:S *209:8 6.43792e-05
7 *1175:D *1083:A 4.38266e-05
8 *126:202 *1083:A 3.46302e-05
9 *126:228 *209:8 9.57748e-05
*RES
1 *1082:X *209:8 40.9621 
2 *209:8 *1083:A 46.2857 
*END

*D_NET *210 0.000491497
*CONN
*I *1085:A I *D sky130_fd_sc_hd__clkbuf_1
*I *1084:X O *D sky130_fd_sc_hd__mux2_1
*CAP
1 *1085:A 0
2 *1084:X 0.000160093
3 *210:10 0.000160093
4 *210:10 *256:628 0
5 *210:10 *322:8 3.60049e-05
6 *30:113 *210:10 5.68958e-05
7 *30:119 *210:10 7.84107e-05
*RES
1 *1084:X *210:10 41.3557 
2 *210:10 *1085:A 38 
*END

*D_NET *211 0.000854272
*CONN
*I *1087:A I *D sky130_fd_sc_hd__clkbuf_1
*I *1086:X O *D sky130_fd_sc_hd__mux2_1
*CAP
1 *1087:A 1.25102e-05
2 *1086:X 0.000293824
3 *211:10 0.000306334
4 *1087:A *1177:CLK 5.50049e-05
5 *1087:A *270:18 3.22879e-05
6 *211:10 *1245:A 7.58643e-05
7 *211:10 *256:654 0
8 *211:10 *318:8 5.0108e-05
9 *99:22 *211:10 2.83387e-05
*RES
1 *1086:X *211:10 42.785 
2 *211:10 *1087:A 38.6214 
*END

*D_NET *212 0.000357363
*CONN
*I *1089:A I *D sky130_fd_sc_hd__clkbuf_1
*I *1088:X O *D sky130_fd_sc_hd__mux2_1
*CAP
1 *1089:A 0.000128591
2 *1088:X 0.000128591
3 *78:12 *1089:A 0.00010018
*RES
1 *1088:X *1089:A 48.9 
*END

*D_NET *213 0.00411964
*CONN
*I *1091:A2 I *D sky130_fd_sc_hd__o21ai_1
*I *1119:A3 I *D sky130_fd_sc_hd__o31a_1
*I *1090:Y O *D sky130_fd_sc_hd__nand2_1
*CAP
1 *1091:A2 0
2 *1119:A3 7.86971e-05
3 *1090:Y 0.000237814
4 *213:35 0.000553103
5 *213:20 0.00097778
6 *213:14 0.000583794
7 *1119:A3 *1119:B1 9.75779e-05
8 *1119:A3 *239:55 6.16531e-05
9 *213:14 *961:A2 9.58714e-05
10 *213:14 *239:113 0
11 *213:35 *239:55 0.000179702
12 *952:B *213:20 7.43025e-06
13 *952:D *213:14 5.82411e-05
14 *958:C *213:14 8.94487e-05
15 *3:17 *213:14 0
16 *105:10 *213:20 9.17998e-05
17 *105:20 *213:35 0
18 *115:22 *213:35 0.000168524
19 *116:10 *213:35 0
20 *116:18 *1119:A3 2.4754e-05
21 *120:22 *213:14 1.81437e-05
22 *120:33 *213:14 0.000135186
23 *125:10 *213:14 1.01436e-05
24 *127:28 *213:35 6.11587e-05
25 *129:18 *213:35 6.7177e-06
26 *133:8 *213:35 0
27 *136:8 *213:35 0.000215544
28 *137:42 *213:35 0
29 *137:63 *1119:A3 0.000139346
30 *137:63 *213:20 0.000227208
*RES
1 *1090:Y *213:14 42.8264 
2 *213:14 *213:20 34.9093 
3 *213:20 *1119:A3 40.4236 
4 *213:20 *213:35 27.47 
5 *213:35 *1091:A2 23 
*END

*D_NET *214 0.00367942
*CONN
*I *1092:A1 I *D sky130_fd_sc_hd__mux2_1
*I *1091:Y O *D sky130_fd_sc_hd__o21ai_1
*CAP
1 *1092:A1 0
2 *1091:Y 0.000154448
3 *214:12 0.000905947
4 *214:8 0.0010604
5 *214:12 *219:68 3.37228e-05
6 *214:12 *239:18 1.16455e-05
7 *214:12 *361:8 8.16713e-05
8 *214:12 *361:12 0.000115527
9 *933:A *214:12 0.000439095
10 *1106:B *214:12 0.000166522
11 *86:10 *214:12 5.80963e-05
12 *93:232 *214:12 5.27824e-05
13 *98:18 *214:12 7.41953e-05
14 *98:30 *214:12 6.12479e-05
15 *109:8 *214:12 8.57577e-05
16 *127:8 *214:12 2.45027e-05
17 *127:20 *214:12 0.000201056
18 *127:22 *214:12 6.02277e-06
19 *127:28 *214:12 4.09548e-05
20 *135:6 *214:8 9.82196e-05
21 *135:21 *214:8 7.61229e-06
*RES
1 *1091:Y *214:8 40.0507 
2 *214:8 *214:12 38.7386 
3 *214:12 *1092:A1 23 
*END

*D_NET *215 0.000495358
*CONN
*I *1093:A I *D sky130_fd_sc_hd__clkbuf_1
*I *1092:X O *D sky130_fd_sc_hd__mux2_1
*CAP
1 *1093:A 0.00012965
2 *1092:X 5.66186e-05
3 *215:8 0.000186269
4 *215:8 *247:127 2.34077e-05
5 *79:8 *215:8 4.11274e-05
6 *93:232 *1093:A 5.82853e-05
*RES
1 *1092:X *215:8 39.2014 
2 *215:8 *1093:A 40.9 
*END

*D_NET *216 0.00206245
*CONN
*I *1095:A1 I *D sky130_fd_sc_hd__mux2_1
*I *1094:Y O *D sky130_fd_sc_hd__a21oi_1
*CAP
1 *1095:A1 0
2 *1094:Y 0.000504528
3 *216:8 0.000504528
4 *216:8 *961:A2 9.8592e-06
5 *216:8 *1095:A0 3.22051e-05
6 *216:8 *217:10 0.000633302
7 *216:8 *266:16 0.000226904
8 *124:63 *216:8 0.000137525
9 *137:63 *216:8 1.35999e-05
*RES
1 *1094:Y *216:8 36.0293 
2 *216:8 *1095:A1 23 
*END

*D_NET *217 0.00185397
*CONN
*I *1096:A I *D sky130_fd_sc_hd__clkbuf_1
*I *1095:X O *D sky130_fd_sc_hd__mux2_1
*CAP
1 *1096:A 2.78658e-05
2 *1095:X 0.000562652
3 *217:10 0.000590518
4 *1096:A *1181:RESET_B 2.95423e-05
5 *217:10 *1181:CLK 1.0092e-05
6 *216:8 *217:10 0.000633302
*RES
1 *1095:X *217:10 47.0729 
2 *217:10 *1096:A 38.6214 
*END

*D_NET *218 0.000241722
*CONN
*I *1098:A I *D sky130_fd_sc_hd__clkbuf_1
*I *1097:X O *D sky130_fd_sc_hd__mux2_1
*CAP
1 *1098:A 0.000120861
2 *1097:X 0.000120861
*RES
1 *1097:X *1098:A 48.4236 
*END

*D_NET *219 0.00789284
*CONN
*I *1101:A2 I *D sky130_fd_sc_hd__o21ai_1
*I *1110:C I *D sky130_fd_sc_hd__or4_1
*I *1107:C1 I *D sky130_fd_sc_hd__a211o_1
*I *1104:B I *D sky130_fd_sc_hd__nor2_1
*I *1109:A2 I *D sky130_fd_sc_hd__o31ai_1
*I *1100:C I *D sky130_fd_sc_hd__or3_1
*I *1099:Y O *D sky130_fd_sc_hd__nand2_2
*CAP
1 *1101:A2 0
2 *1110:C 2.2141e-05
3 *1107:C1 1.89193e-05
4 *1104:B 0
5 *1109:A2 1.48385e-05
6 *1100:C 7.18716e-05
7 *1099:Y 0.000429594
8 *219:77 0.000209033
9 *219:68 0.000150829
10 *219:60 0.000430127
11 *219:45 0.00042335
12 *219:28 0.000620074
13 *219:22 0.000600747
14 *219:10 0.000779326
15 *1100:C *1188:CLK 5.12254e-05
16 *1107:C1 *1107:A1 3.28357e-06
17 *1110:C *1110:D 3.26241e-05
18 *219:10 *1186:CLK 0.000104295
19 *219:10 *1187:CLK 2.46399e-05
20 *219:22 *936:B_N 8.59717e-05
21 *219:22 *229:12 6.82195e-05
22 *219:45 *224:10 0.000136486
23 *219:45 *355:92 0
24 *219:60 *224:10 1.01436e-05
25 *219:60 *224:25 0.00015266
26 *219:68 *1108:A2 0.000186038
27 *219:68 *1108:B1 7.18547e-05
28 *219:77 *1108:B1 7.61229e-06
29 *219:77 *1110:D 3.91247e-05
30 *219:77 *224:25 4.67488e-05
31 *1101:B1 *219:22 3.27248e-05
32 *1101:B1 *219:28 8.17328e-05
33 *1102:A *1100:C 5.3304e-05
34 *1107:B1 *219:77 5.58003e-05
35 *1110:A *1110:C 8.93708e-05
36 *1110:A *219:77 5.58003e-05
37 *1110:B *219:77 4.05745e-05
38 *1122:A2 *219:10 4.04303e-05
39 *30:18 *219:10 0.000143031
40 *98:10 *219:28 1.24376e-05
41 *98:122 *219:28 1.12487e-05
42 *98:122 *219:45 1.37349e-05
43 *99:134 *219:45 0
44 *126:265 *1109:A2 1.69977e-05
45 *127:20 *219:45 0
46 *127:20 *219:68 6.12484e-05
47 *127:34 *219:10 0.000168669
48 *127:61 *1100:C 5.3304e-05
49 *127:69 *219:28 0.000222104
50 *130:18 *219:10 9.84794e-05
51 *139:10 *219:10 0.000166051
52 *139:23 *219:10 0.000462017
53 *139:23 *219:22 0.00022431
54 *139:23 *219:28 8.94487e-05
55 *139:36 *219:28 0.000151907
56 *139:36 *219:45 0.000115022
57 *139:47 *219:45 0.000181858
58 *139:55 *1109:A2 3.32677e-05
59 *139:65 *219:45 6.07611e-06
60 *139:65 *219:60 7.01192e-05
61 *139:65 *219:68 0.000316273
62 *214:12 *219:68 3.37228e-05
*RES
1 *1099:Y *219:10 49.2479 
2 *219:10 *219:22 21.8564 
3 *219:22 *219:28 19.4121 
4 *219:28 *1100:C 39.595 
5 *219:28 *219:45 6.89786 
6 *219:45 *1109:A2 38.3832 
7 *219:45 *219:60 17.755 
8 *219:60 *219:68 35.2821 
9 *219:68 *1104:B 23 
10 *219:60 *219:77 3.50071 
11 *219:77 *1107:C1 23.4971 
12 *219:77 *1110:C 24.0979 
13 *219:22 *1101:A2 23 
*END

*D_NET *220 0.000282584
*CONN
*I *1102:B I *D sky130_fd_sc_hd__and3_1
*I *1100:X O *D sky130_fd_sc_hd__or3_1
*CAP
1 *1102:B 0.000101846
2 *1100:X 0.000101846
3 *1102:B *1188:CLK 7.88926e-05
*RES
1 *1100:X *1102:B 47.5743 
*END

*D_NET *221 0.000309613
*CONN
*I *1102:C I *D sky130_fd_sc_hd__and3_1
*I *1101:Y O *D sky130_fd_sc_hd__o21ai_1
*CAP
1 *1102:C 5.23172e-05
2 *1101:Y 7.07864e-05
3 *221:8 0.000123104
4 *1102:C *1188:CLK 2.25517e-05
5 *221:8 *355:84 4.08537e-05
*RES
1 *1101:Y *221:8 39.2014 
2 *221:8 *1102:C 38.7043 
*END

*D_NET *222 0.000474841
*CONN
*I *1103:A I *D sky130_fd_sc_hd__clkbuf_1
*I *1102:X O *D sky130_fd_sc_hd__and3_1
*CAP
1 *1103:A 0
2 *1102:X 0.0001847
3 *222:10 0.0001847
4 *222:10 *1188:CLK 3.22879e-05
5 *222:10 *247:12 3.22879e-05
6 *222:10 *355:84 0
7 *82:8 *222:10 4.08641e-05
*RES
1 *1102:X *222:10 41.3557 
2 *222:10 *1103:A 38 
*END

*D_NET *223 0.000496856
*CONN
*I *1108:A2 I *D sky130_fd_sc_hd__o211a_1
*I *1104:Y O *D sky130_fd_sc_hd__nor2_1
*CAP
1 *1108:A2 9.60364e-05
2 *1104:Y 9.60364e-05
3 *1108:A2 *1108:B1 4.39038e-05
4 *127:16 *1108:A2 4.98295e-05
5 *139:65 *1108:A2 2.50118e-05
6 *219:68 *1108:A2 0.000186038
*RES
1 *1104:Y *1108:A2 49.0243 
*END

*D_NET *224 0.00217983
*CONN
*I *1110:D I *D sky130_fd_sc_hd__or4_1
*I *1107:A1 I *D sky130_fd_sc_hd__a211o_1
*I *1109:A3 I *D sky130_fd_sc_hd__o31ai_1
*I *1105:Y O *D sky130_fd_sc_hd__nand2_1
*CAP
1 *1110:D 9.68213e-05
2 *1107:A1 1.20839e-05
3 *1109:A3 0
4 *1105:Y 0.00023406
5 *224:25 0.000327143
6 *224:10 0.000452297
7 *224:25 *1108:B1 3.86731e-05
8 *224:25 *225:10 0.000165394
9 *1107:B1 *1110:D 5.58003e-05
10 *1107:C1 *1107:A1 3.28357e-06
11 *1110:C *1110:D 3.26241e-05
12 *102:30 *224:10 0.0002246
13 *139:47 *224:10 8.62876e-05
14 *139:79 *224:10 2.60152e-05
15 *139:79 *224:25 3.95873e-05
16 *219:45 *224:10 0.000136486
17 *219:60 *224:10 1.01436e-05
18 *219:60 *224:25 0.00015266
19 *219:77 *1110:D 3.91247e-05
20 *219:77 *224:25 4.67488e-05
*RES
1 *1105:Y *224:10 42.4329 
2 *224:10 *1109:A3 38 
3 *224:10 *224:25 19.9093 
4 *224:25 *1107:A1 23.4971 
5 *224:25 *1110:D 25.0507 
*END

*D_NET *225 0.0015577
*CONN
*I *1107:A2 I *D sky130_fd_sc_hd__a211o_1
*I *1106:X O *D sky130_fd_sc_hd__or2_1
*CAP
1 *1107:A2 0
2 *1106:X 0.0004071
3 *225:10 0.0004071
4 *1107:B1 *225:10 5.90936e-05
5 *126:265 *225:10 0.000433258
6 *139:79 *225:10 8.57577e-05
7 *224:25 *225:10 0.000165394
*RES
1 *1106:X *225:10 45.1671 
2 *225:10 *1107:A2 38 
*END

*D_NET *226 0.000543461
*CONN
*I *1108:B1 I *D sky130_fd_sc_hd__o211a_1
*I *1107:X O *D sky130_fd_sc_hd__a211o_1
*CAP
1 *1108:B1 0.000152039
2 *1107:X 0.000152039
3 *1108:A2 *1108:B1 4.39038e-05
4 *83:10 *1108:B1 5.82853e-05
5 *127:16 *1108:B1 1.9054e-05
6 *219:68 *1108:B1 7.18547e-05
7 *219:77 *1108:B1 7.61229e-06
8 *224:25 *1108:B1 3.86731e-05
*RES
1 *1107:X *1108:B1 49.9979 
*END

*D_NET *227 0.00125716
*CONN
*I *1111:A1 I *D sky130_fd_sc_hd__a21oi_1
*I *1109:Y O *D sky130_fd_sc_hd__o31ai_1
*CAP
1 *1111:A1 0
2 *1109:Y 0.000367691
3 *227:12 0.000367691
4 *1109:B1 *227:12 5.3304e-05
5 *84:12 *227:12 1.7403e-05
6 *102:16 *227:12 0.000174671
7 *126:265 *227:12 0.000268868
8 *139:55 *227:12 7.53384e-06
*RES
1 *1109:Y *227:12 46.9693 
2 *227:12 *1111:A1 38 
*END

*D_NET *228 0.000163612
*CONN
*I *1111:A2 I *D sky130_fd_sc_hd__a21oi_1
*I *1110:X O *D sky130_fd_sc_hd__or4_1
*CAP
1 *1111:A2 6.2715e-05
2 *1110:X 6.2715e-05
3 *1110:A *1111:A2 5.55743e-06
4 *84:12 *1111:A2 3.26241e-05
*RES
1 *1110:X *1111:A2 47.4707 
*END

*D_NET *229 0.000505271
*CONN
*I *1113:B I *D sky130_fd_sc_hd__nand2_1
*I *1112:Y O *D sky130_fd_sc_hd__o21ai_1
*CAP
1 *1113:B 0
2 *1112:Y 0.000188309
3 *229:12 0.000188309
4 *229:12 *1203:A 6.63159e-06
5 *1112:A1 *229:12 2.95526e-05
6 *134:12 *229:12 1.84917e-05
7 *134:26 *229:12 5.75756e-06
8 *219:22 *229:12 6.82195e-05
*RES
1 *1112:Y *229:12 41.2729 
2 *229:12 *1113:B 38 
*END

*D_NET *230 0.000391709
*CONN
*I *1115:B I *D sky130_fd_sc_hd__nand2_1
*I *1114:Y O *D sky130_fd_sc_hd__o21ai_1
*CAP
1 *1115:B 0
2 *1114:Y 0.000155692
3 *230:10 0.000155692
4 *230:10 *936:B_N 2.48267e-05
5 *230:10 *1114:B1 7.61229e-06
6 *230:10 *274:8 2.56684e-05
7 *98:122 *230:10 2.22183e-05
8 *127:28 *230:10 0
9 *127:69 *230:10 0
*RES
1 *1114:Y *230:10 40.8793 
2 *230:10 *1115:B 38 
*END

*D_NET *231 0.000276902
*CONN
*I *1117:B I *D sky130_fd_sc_hd__or2_1
*I *1116:X O *D sky130_fd_sc_hd__o31a_1
*CAP
1 *1117:B 0.000122618
2 *1116:X 0.000122618
3 *123:10 *1117:B 3.16665e-05
*RES
1 *1116:X *1117:B 48.0507 
*END

*D_NET *232 0.000810796
*CONN
*I *1118:A I *D sky130_fd_sc_hd__clkbuf_1
*I *1117:X O *D sky130_fd_sc_hd__or2_1
*CAP
1 *1118:A 0
2 *1117:X 0.0002951
3 *232:10 0.0002951
4 *1117:A *232:10 4.06849e-05
5 *87:8 *232:10 7.03869e-05
6 *93:213 *232:10 0
7 *102:64 *232:10 0.000109525
*RES
1 *1117:X *232:10 44.1729 
2 *232:10 *1118:A 38 
*END

*D_NET *233 0.000248953
*CONN
*I *1120:B I *D sky130_fd_sc_hd__or2_1
*I *1119:X O *D sky130_fd_sc_hd__o31a_1
*CAP
1 *1120:B 0
2 *1119:X 6.4862e-05
3 *233:8 6.4862e-05
4 *233:8 *239:55 0
5 *98:38 *233:8 0.000113153
6 *116:18 *233:8 6.07611e-06
*RES
1 *1119:X *233:8 39.5536 
2 *233:8 *1120:B 38 
*END

*D_NET *234 0.00049185
*CONN
*I *1121:A I *D sky130_fd_sc_hd__clkbuf_1
*I *1120:X O *D sky130_fd_sc_hd__or2_1
*CAP
1 *1121:A 2.0978e-05
2 *1120:X 8.44145e-05
3 *234:8 0.000105392
4 *1121:A *1181:RESET_B 5.45541e-05
5 *234:8 *239:55 7.74223e-05
6 *98:53 *1121:A 0.000102971
7 *126:113 *234:8 4.61178e-05
*RES
1 *1120:X *234:8 40.2579 
2 *234:8 *1121:A 39.0979 
*END

*D_NET *235 0.000810978
*CONN
*I *1123:B I *D sky130_fd_sc_hd__or2_1
*I *1122:Y O *D sky130_fd_sc_hd__a21oi_1
*CAP
1 *1123:B 0.000163725
2 *1122:Y 0.000137708
3 *235:8 0.000301433
4 *1123:B *957:A 1.37232e-05
5 *1123:B *236:10 3.26301e-06
6 *235:8 *373:12 0
7 *30:90 *235:8 8.87374e-05
8 *126:187 *1123:B 0.000102389
*RES
1 *1122:Y *235:8 40.61 
2 *235:8 *1123:B 40.5479 
*END

*D_NET *236 0.00240041
*CONN
*I *1124:A I *D sky130_fd_sc_hd__clkbuf_1
*I *1123:X O *D sky130_fd_sc_hd__or2_1
*CAP
1 *1124:A 0.000465755
2 *1123:X 0.000215755
3 *236:10 0.000681509
4 *1124:A *246:10 0.000106277
5 *932:B1 *1124:A 5.3304e-05
6 *1123:B *236:10 3.26301e-06
7 *3:17 *236:10 0
8 *89:10 *1124:A 0.000139764
9 *96:8 *1124:A 0.000129123
10 *105:10 *1124:A 0.000583063
11 *126:187 *236:10 2.25988e-05
*RES
1 *1123:X *236:10 40.7757 
2 *236:10 *1124:A 49.9729 
*END

*D_NET *237 0.00179723
*CONN
*I *1127:B I *D sky130_fd_sc_hd__nor2_1
*I *1126:Y O *D sky130_fd_sc_hd__a21oi_1
*CAP
1 *1127:B 4.06637e-05
2 *1126:Y 0.000247001
3 *237:8 0.000287665
4 *1127:B *326:26 5.5792e-05
5 *237:8 *242:46 1.39826e-05
6 *237:8 *301:16 5.71002e-06
7 *237:8 *301:29 0.000238921
8 *237:8 *326:26 0.000414456
9 *237:8 *342:8 0.000183795
10 *1127:A *1127:B 9.91548e-05
11 *91:16 *1127:B 0.000188526
12 *93:133 *237:8 4.16051e-06
13 *94:17 *1127:B 1.73995e-05
*RES
1 *1126:Y *237:8 44.4836 
2 *237:8 *1127:B 40.0507 
*END

*D_NET *238 0.000616086
*CONN
*I *1129:B I *D sky130_fd_sc_hd__nor2_1
*I *1128:Y O *D sky130_fd_sc_hd__nor2_1
*CAP
1 *1129:B 2.65613e-05
2 *1128:Y 0.000167335
3 *238:10 0.000193896
4 *238:10 *1194:RESET_B 0
5 *238:10 *326:18 0
6 *1128:B *1129:B 1.35714e-05
7 *1128:B *238:10 2.66101e-05
8 *28:6 *1129:B 3.26241e-05
9 *95:8 *1129:B 0.000100477
10 *95:8 *238:10 5.50106e-05
*RES
1 *1128:Y *238:10 40.4236 
2 *238:10 *1129:B 39.0979 
*END

*D_NET *239 0.0202116
*CONN
*I *1202:A I *D sky130_fd_sc_hd__clkbuf_16
*I *1197:A I *D sky130_fd_sc_hd__clkbuf_16
*I *1198:A I *D sky130_fd_sc_hd__clkbuf_16
*I *1199:A I *D sky130_fd_sc_hd__clkbuf_16
*I *1196:A I *D sky130_fd_sc_hd__clkbuf_16
*I *1203:A I *D sky130_fd_sc_hd__clkbuf_16
*I *1201:A I *D sky130_fd_sc_hd__clkbuf_16
*I *1200:A I *D sky130_fd_sc_hd__clkbuf_16
*I *1195:X O *D sky130_fd_sc_hd__clkbuf_16
*CAP
1 *1202:A 0
2 *1197:A 0
3 *1198:A 0.000238122
4 *1199:A 0
5 *1196:A 0
6 *1203:A 0.000565007
7 *1201:A 0
8 *1200:A 0
9 *1195:X 0
10 *239:113 0.000443624
11 *239:98 0.0018229
12 *239:72 0.00013843
13 *239:66 0.000653811
14 *239:59 0.000820258
15 *239:55 0.00286886
16 *239:51 0.0009608
17 *239:32 0.000827167
18 *239:22 0.00115543
19 *239:18 0.00154929
20 *239:4 0.000670241
21 *1203:A *936:B_N 0.000214398
22 *239:18 *253:22 0
23 *239:22 *935:A2 2.46906e-05
24 *239:22 *362:35 0.000141103
25 *239:22 *375:20 1.21972e-05
26 *239:32 *1022:A0 0.000237413
27 *239:32 *303:30 3.76387e-05
28 *239:32 *325:64 0.000140036
29 *239:55 *324:68 7.42079e-06
30 *239:55 *377:27 0.000222379
31 *239:59 *944:B1 0.000111302
32 *239:59 *1164:RESET_B 5.15745e-05
33 *239:59 *324:68 0.000986152
34 *239:59 *367:12 0
35 *239:59 *377:27 2.39569e-05
36 *239:72 *301:29 0
37 *239:72 *367:12 1.19692e-05
38 *239:98 *1037:A1 0.000145163
39 *239:98 *256:461 0
40 *239:113 *373:24 9.84794e-05
41 *935:A1 *1203:A 0.000183547
42 *935:A1 *239:22 0.000100061
43 *935:C1 *239:22 2.46906e-05
44 *935:C1 *239:32 1.3523e-05
45 *958:B *239:18 5.50049e-05
46 *958:C *239:18 0.00010999
47 *958:C *239:51 4.17736e-05
48 *958:C *239:113 0.000424318
49 *1022:S *239:32 0.000233211
50 *1038:A *239:98 5.58003e-05
51 *1112:A1 *1203:A 9.53421e-05
52 *1119:A1 *239:55 3.83778e-05
53 *1119:A3 *239:55 6.16531e-05
54 *3:17 *239:113 0.000246757
55 *52:10 *239:98 5.5792e-05
56 *85:10 *1203:A 0.000230718
57 *98:30 *239:18 0.000619917
58 *98:38 *239:55 0
59 *105:10 *239:113 5.3304e-05
60 *108:10 *239:22 0.000179473
61 *108:29 *239:18 7.49016e-05
62 *109:8 *239:18 8.57577e-05
63 *116:10 *239:18 0.000608499
64 *116:18 *239:55 0
65 *118:12 *239:59 0
66 *125:10 *239:113 0
67 *126:113 *239:55 0
68 *126:133 *239:59 0
69 *126:133 *239:72 0
70 *127:28 *239:18 3.35883e-06
71 *127:69 *1203:A 0.000141344
72 *129:10 *239:113 0.000164364
73 *129:18 *239:18 5.50106e-05
74 *129:18 *239:51 5.50049e-05
75 *129:18 *239:55 5.31444e-05
76 *129:18 *239:113 0.000395889
77 *134:12 *1203:A 0.000234542
78 *137:42 *239:55 6.7177e-06
79 *173:46 *239:98 5.45644e-05
80 *198:8 *239:59 0
81 *213:14 *239:113 0
82 *213:35 *239:55 0.000179702
83 *214:12 *239:18 1.16455e-05
84 *229:12 *1203:A 6.63159e-06
85 *233:8 *239:55 0
86 *234:8 *239:55 7.74223e-05
*RES
1 *1195:X *239:4 23 
2 *239:4 *239:18 46.6129 
3 *239:18 *239:22 6.35929 
4 *239:22 *239:32 46.3643 
5 *239:32 *1200:A 23 
6 *239:22 *1201:A 23 
7 *239:18 *1203:A 35.0557 
8 *239:4 *239:51 0.621429 
9 *239:51 *239:55 26.5896 
10 *239:55 *239:59 29.7589 
11 *239:59 *1196:A 23 
12 *239:59 *239:66 4.43286 
13 *239:66 *239:72 32.2579 
14 *239:72 *1199:A 23 
15 *239:66 *1198:A 27.4329 
16 *239:55 *239:98 40.8276 
17 *239:98 *1197:A 23 
18 *239:51 *239:113 42.5321 
19 *239:113 *1202:A 23 
*END

*D_NET *240 0.0147934
*CONN
*I *1168:CLK I *D sky130_fd_sc_hd__dfrtp_1
*I *1165:CLK I *D sky130_fd_sc_hd__dfrtp_1
*I *1159:CLK I *D sky130_fd_sc_hd__dfrtp_1
*I *1149:CLK I *D sky130_fd_sc_hd__dfrtp_1
*I *1160:CLK I *D sky130_fd_sc_hd__dfrtp_1
*I *1145:CLK I *D sky130_fd_sc_hd__dfrtp_1
*I *1144:CLK I *D sky130_fd_sc_hd__dfrtp_1
*I *1151:CLK I *D sky130_fd_sc_hd__dfrtp_1
*I *1150:CLK I *D sky130_fd_sc_hd__dfrtp_1
*I *1158:CLK I *D sky130_fd_sc_hd__dfrtp_1
*I *1166:CLK I *D sky130_fd_sc_hd__dfrtp_1
*I *1196:X O *D sky130_fd_sc_hd__clkbuf_16
*CAP
1 *1168:CLK 0.000561675
2 *1165:CLK 4.76625e-05
3 *1159:CLK 1.16274e-05
4 *1149:CLK 0
5 *1160:CLK 1.96933e-05
6 *1145:CLK 0
7 *1144:CLK 0
8 *1151:CLK 0
9 *1150:CLK 3.46759e-05
10 *1158:CLK 0.000397762
11 *1166:CLK 0.00056721
12 *1196:X 0.000209004
13 *240:125 0.000797503
14 *240:94 0.000543967
15 *240:86 0.00059685
16 *240:79 0.000544677
17 *240:73 0.00141618
18 *240:67 0.00130075
19 *240:50 0.000791738
20 *240:48 0.000370095
21 *240:31 0.000902565
22 *240:25 0.000663198
23 *240:21 0.000410407
24 *240:10 0.000776214
25 *1158:CLK *1030:B1 5.50106e-05
26 *1158:CLK *1032:A0 0.000139346
27 *1158:CLK *1158:RESET_B 0.000548975
28 *1158:CLK *251:35 8.4047e-05
29 *1159:CLK *1159:RESET_B 2.50118e-05
30 *1159:CLK *326:36 5.58003e-05
31 *1165:CLK *256:169 2.32101e-05
32 *1168:CLK *1168:RESET_B 0
33 *240:25 *256:175 0
34 *240:25 *256:510 0.000301303
35 *240:31 *1159:RESET_B 2.95526e-05
36 *240:31 *326:36 0.000272915
37 *240:48 *251:35 2.80394e-05
38 *240:50 *1150:RESET_B 9.60573e-05
39 *240:50 *251:35 0.000167489
40 *240:50 *346:6 4.839e-05
41 *240:50 *346:14 0.000220206
42 *240:67 *320:22 0.000226363
43 *240:73 *1145:RESET_B 4.72717e-05
44 *240:73 *256:179 2.17486e-05
45 *240:73 *256:189 7.84788e-06
46 *240:73 *341:6 5.3304e-05
47 *240:73 *341:37 9.41704e-05
48 *240:125 *256:171 0
49 *240:125 *256:175 0
50 *1035:A *1150:CLK 7.87147e-05
51 *1035:A *240:50 2.95526e-05
52 *1065:A *1166:CLK 4.00259e-06
53 *1145:D *240:73 0.000104578
54 *1149:D *240:48 2.64616e-05
55 *1150:D *1150:CLK 8.1796e-05
56 *1160:D *240:67 3.06911e-05
57 *1160:D *240:73 3.42479e-05
58 *1166:D *1166:CLK 5.83407e-05
59 *1168:D *1168:CLK 3.57857e-05
60 *1251:A *240:94 0
61 *49:12 *1158:CLK 0.000135468
62 *65:10 *240:25 0
63 *65:10 *240:125 0
64 *93:8 *240:94 0
65 *93:100 *1165:CLK 9.67842e-05
66 *93:112 *1168:CLK 1.58805e-05
67 *93:112 *240:10 6.80747e-05
68 *93:112 *240:125 6.6869e-05
69 *93:213 *1168:CLK 8.82421e-05
70 *126:26 *1165:CLK 7.44354e-05
71 *126:32 *1168:CLK 0
72 *180:25 *1158:CLK 3.22879e-05
73 *184:20 *1158:CLK 0.000135872
74 *186:8 *240:67 8.57577e-05
*RES
1 *1196:X *240:10 26.6457 
2 *240:10 *1166:CLK 30.6643 
3 *240:10 *240:21 15 
4 *240:21 *240:25 20.075 
5 *240:25 *240:31 23.4307 
6 *240:31 *1158:CLK 49.3514 
7 *240:31 *240:48 16.5743 
8 *240:48 *240:50 8.24429 
9 *240:50 *1150:CLK 24.5743 
10 *240:50 *240:67 39.6114 
11 *240:67 *240:73 11.745 
12 *240:73 *240:79 40.3571 
13 *240:79 *1151:CLK 23 
14 *240:73 *240:86 1.20143 
15 *240:86 *240:94 39.8186 
16 *240:94 *1144:CLK 23 
17 *240:86 *1145:CLK 23 
18 *240:67 *1160:CLK 23.4971 
19 *240:48 *1149:CLK 23 
20 *240:25 *1159:CLK 23.6214 
21 *240:21 *240:125 3.66643 
22 *240:125 *1165:CLK 39.5743 
23 *240:125 *1168:CLK 48.2743 
*END

*D_NET *241 0.00806852
*CONN
*I *1152:CLK I *D sky130_fd_sc_hd__dfrtp_1
*I *1167:CLK I *D sky130_fd_sc_hd__dfrtp_1
*I *1169:CLK I *D sky130_fd_sc_hd__dfrtp_1
*I *1154:CLK I *D sky130_fd_sc_hd__dfrtp_1
*I *1143:CLK I *D sky130_fd_sc_hd__dfrtp_1
*I *1153:CLK I *D sky130_fd_sc_hd__dfrtp_1
*I *1197:X O *D sky130_fd_sc_hd__clkbuf_16
*CAP
1 *1152:CLK 0
2 *1167:CLK 0
3 *1169:CLK 0.000164865
4 *1154:CLK 0.000213018
5 *1143:CLK 0.000428679
6 *1153:CLK 0.000396142
7 *1197:X 6.81634e-05
8 *241:72 0.00074731
9 *241:62 0.00102093
10 *241:38 0.000612069
11 *241:12 0.000996868
12 *241:10 0.0004658
13 *241:8 0.000401354
14 *1143:CLK *1143:RESET_B 3.06889e-05
15 *1153:CLK *1015:A0 0.000317712
16 *1153:CLK *319:10 8.88026e-05
17 *1153:CLK *319:20 2.08324e-05
18 *1153:CLK *339:16 0
19 *1154:CLK *303:12 0.000272458
20 *1169:CLK *319:10 9.176e-05
21 *241:12 *319:10 0.000195595
22 *241:38 *319:10 0.000228383
23 *241:72 *1041:A0 3.68359e-05
24 *241:72 *1041:A1 0.000166825
25 *241:72 *1066:A0 9.15307e-05
26 *241:72 *1066:A1 0.000146999
27 *241:72 *256:286 0.000139459
28 *1016:A *1153:CLK 0
29 *1066:S *241:72 0.000100477
30 *173:23 *1153:CLK 0.000188977
31 *173:34 *1153:CLK 8.15864e-05
32 *173:64 *241:72 0.000354396
33 *203:10 *1169:CLK 0
*RES
1 *1197:X *241:8 39.9057 
2 *241:8 *241:10 1.09786 
3 *241:10 *241:12 5.42714 
4 *241:12 *1153:CLK 47.3421 
5 *241:12 *1143:CLK 45.7679 
6 *241:10 *241:38 6.13143 
7 *241:38 *1154:CLK 43.3857 
8 *241:38 *1169:CLK 41.2314 
9 *241:8 *241:62 19.4329 
10 *241:62 *241:72 46.1157 
11 *241:72 *1167:CLK 23 
12 *241:62 *1152:CLK 23 
*END

*D_NET *242 0.0108235
*CONN
*I *1156:CLK I *D sky130_fd_sc_hd__dfrtp_1
*I *1192:CLK I *D sky130_fd_sc_hd__dfrtp_4
*I *1164:CLK I *D sky130_fd_sc_hd__dfrtp_1
*I *1155:CLK I *D sky130_fd_sc_hd__dfrtp_1
*I *1193:CLK I *D sky130_fd_sc_hd__dfrtp_4
*I *1194:CLK I *D sky130_fd_sc_hd__dfrtp_4
*I *1130:CLK I *D sky130_fd_sc_hd__dfrtp_1
*I *1157:CLK I *D sky130_fd_sc_hd__dfrtp_1
*I *1198:X O *D sky130_fd_sc_hd__clkbuf_16
*CAP
1 *1156:CLK 0
2 *1192:CLK 0
3 *1164:CLK 0.000454282
4 *1155:CLK 0
5 *1193:CLK 0
6 *1194:CLK 0
7 *1130:CLK 0
8 *1157:CLK 0.000311269
9 *1198:X 2.41702e-05
10 *242:99 0.000538175
11 *242:86 0.00112671
12 *242:57 0.000157353
13 *242:46 0.00027438
14 *242:31 0.00126359
15 *242:23 0.000831857
16 *242:12 0.000673585
17 *242:10 0.00111225
18 *242:6 0.000908359
19 *1157:CLK *1194:RESET_B 0
20 *1164:CLK *243:10 0.000271386
21 *1164:CLK *243:31 0.000272205
22 *242:12 *243:10 8.29264e-05
23 *242:12 *354:10 0.000370729
24 *242:31 *253:66 5.26901e-05
25 *242:31 *354:10 5.40241e-05
26 *242:46 *1229:A 3.77412e-05
27 *242:46 *253:66 3.0918e-05
28 *242:46 *342:8 0.000312862
29 *242:57 *324:26 5.75756e-06
30 *242:86 *979:A0 0.000170529
31 *242:86 *262:18 0.000165608
32 *242:86 *325:97 0
33 *242:86 *326:115 1.21972e-05
34 *242:99 *325:97 0.000190742
35 *1192:D *242:99 8.58395e-05
36 *55:10 *1157:CLK 3.87236e-05
37 *91:16 *242:57 0.000137754
38 *93:133 *242:46 0.000228676
39 *93:133 *242:57 6.45006e-05
40 *93:141 *242:46 0.000166425
41 *141:18 *242:99 0.000148298
42 *145:10 *242:99 9.04798e-05
43 *145:40 *242:99 0.000106005
44 *148:14 *1164:CLK 0
45 *148:14 *242:10 2.6676e-05
46 *148:14 *242:86 9.81739e-06
47 *237:8 *242:46 1.39826e-05
*RES
1 *1198:X *242:6 23.4971 
2 *242:6 *242:10 18.48 
3 *242:10 *242:12 7.54 
4 *242:12 *1157:CLK 43.7793 
5 *242:12 *242:23 15 
6 *242:23 *242:31 11.9936 
7 *242:31 *1130:CLK 23 
8 *242:31 *242:46 37.4986 
9 *242:46 *1194:CLK 23 
10 *242:31 *242:57 32.61 
11 *242:57 *1193:CLK 23 
12 *242:23 *1155:CLK 23 
13 *242:10 *1164:CLK 48.005 
14 *242:6 *242:86 38.5964 
15 *242:86 *1192:CLK 23 
16 *242:86 *242:99 42.2007 
17 *242:99 *1156:CLK 23 
*END

*D_NET *243 0.0103011
*CONN
*I *1161:CLK I *D sky130_fd_sc_hd__dfrtp_1
*I *1162:CLK I *D sky130_fd_sc_hd__dfrtp_1
*I *1131:CLK I *D sky130_fd_sc_hd__dfrtp_1
*I *1132:CLK I *D sky130_fd_sc_hd__dfrtp_1
*I *1163:CLK I *D sky130_fd_sc_hd__dfrtp_1
*I *1181:CLK I *D sky130_fd_sc_hd__dfrtp_1
*I *1190:CLK I *D sky130_fd_sc_hd__dfrtp_1
*I *1133:CLK I *D sky130_fd_sc_hd__dfrtp_1
*I *1199:X O *D sky130_fd_sc_hd__clkbuf_16
*CAP
1 *1161:CLK 0.000241591
2 *1162:CLK 5.30638e-05
3 *1131:CLK 0.000339567
4 *1132:CLK 0
5 *1163:CLK 0
6 *1181:CLK 0.000193514
7 *1190:CLK 6.10891e-05
8 *1133:CLK 0
9 *1199:X 0.000402755
10 *243:92 0.000652455
11 *243:77 0.00115645
12 *243:66 0.00120675
13 *243:35 0.000748827
14 *243:31 0.000905304
15 *243:12 0.000411079
16 *243:10 0.00115042
17 *1131:CLK *1132:RESET_B 8.92557e-05
18 *1131:CLK *256:26 0.000118972
19 *1131:CLK *262:18 0
20 *1131:CLK *325:112 0
21 *1161:CLK *923:A 8.89266e-05
22 *1161:CLK *931:A2 8.57485e-05
23 *1161:CLK *325:112 0
24 *1162:CLK *371:8 0.000186038
25 *1181:CLK *1181:RESET_B 3.55402e-05
26 *243:10 *1163:RESET_B 0
27 *243:31 *1164:RESET_B 9.32674e-05
28 *243:31 *367:23 0
29 *243:35 *367:23 0
30 *243:66 *1163:RESET_B 0
31 *243:66 *372:12 0.000141879
32 *1131:D *1131:CLK 2.3853e-05
33 *1133:D *243:31 0.000148496
34 *1162:D *1162:CLK 8.26478e-05
35 *1164:CLK *243:10 0.000271386
36 *1164:CLK *243:31 0.000272205
37 *1181:D *1181:CLK 5.58003e-05
38 *63:10 *243:31 0.000257738
39 *64:8 *243:31 0
40 *99:47 *1161:CLK 5.58003e-05
41 *99:69 *1190:CLK 0.000145163
42 *102:120 *243:35 0
43 *117:10 *243:35 6.87978e-05
44 *118:25 *243:35 4.38655e-05
45 *126:10 *243:10 0.000276722
46 *196:8 *243:92 0.000143166
47 *197:20 *243:31 0
48 *198:8 *243:31 0
49 *217:10 *1181:CLK 1.0092e-05
50 *242:12 *243:10 8.29264e-05
*RES
1 *1199:X *243:10 45.7264 
2 *243:10 *243:12 15 
3 *243:12 *1133:CLK 23 
4 *243:12 *243:31 40.2121 
5 *243:31 *243:35 23.9486 
6 *243:35 *1190:CLK 39.5743 
7 *243:35 *1181:CLK 41.2314 
8 *243:31 *1163:CLK 23 
9 *243:10 *243:66 27.1179 
10 *243:66 *1132:CLK 23 
11 *243:66 *243:77 21.1107 
12 *243:77 *1131:CLK 44.6079 
13 *243:77 *243:92 7.54 
14 *243:92 *1162:CLK 40.0507 
15 *243:92 *1161:CLK 42.5571 
*END

*D_NET *244 0.00729402
*CONN
*I *1189:CLK I *D sky130_fd_sc_hd__dfrtp_1
*I *1171:CLK I *D sky130_fd_sc_hd__dfrtp_1
*I *1147:CLK I *D sky130_fd_sc_hd__dfrtp_1
*I *1182:CLK I *D sky130_fd_sc_hd__dfrtp_1
*I *1172:CLK I *D sky130_fd_sc_hd__dfrtp_1
*I *1148:CLK I *D sky130_fd_sc_hd__dfrtp_1
*I *1200:X O *D sky130_fd_sc_hd__clkbuf_16
*CAP
1 *1189:CLK 0
2 *1171:CLK 4.74088e-05
3 *1147:CLK 0
4 *1182:CLK 0.000173923
5 *1172:CLK 0.000365636
6 *1148:CLK 0.000337864
7 *1200:X 0
8 *244:73 0.000824148
9 *244:58 0.00105274
10 *244:44 0.000333568
11 *244:36 0.00077505
12 *244:10 0.00105774
13 *244:4 0.000788467
14 *1172:CLK *1077:A 5.50049e-05
15 *1172:CLK *280:10 0
16 *244:44 *303:24 7.74734e-05
17 *244:44 *326:80 3.24987e-05
18 *244:73 *256:330 0
19 *244:73 *324:81 0.000271447
20 *1147:D *1182:CLK 4.96217e-05
21 *1147:D *244:44 4.54961e-05
22 *1171:D *244:73 0.000265496
23 *1172:D *1172:CLK 3.39646e-05
24 *30:34 *1172:CLK 0.000131735
25 *30:34 *244:10 0.000574734
*RES
1 *1200:X *244:4 23 
2 *244:4 *244:10 23.6379 
3 *244:10 *1148:CLK 42.3293 
4 *244:10 *1172:CLK 45.3121 
5 *244:4 *244:36 5.38571 
6 *244:36 *244:44 33.48 
7 *244:44 *1182:CLK 26.48 
8 *244:44 *1147:CLK 23 
9 *244:36 *244:58 2.05071 
10 *244:58 *1171:CLK 23.8493 
11 *244:58 *244:73 44.355 
12 *244:73 *1189:CLK 23 
*END

*D_NET *245 0.00853019
*CONN
*I *1139:CLK I *D sky130_fd_sc_hd__dfrtp_1
*I *1170:CLK I *D sky130_fd_sc_hd__dfrtp_1
*I *1146:CLK I *D sky130_fd_sc_hd__dfrtp_1
*I *1137:CLK I *D sky130_fd_sc_hd__dfrtp_1
*I *1179:CLK I *D sky130_fd_sc_hd__dfrtp_1
*I *1138:CLK I *D sky130_fd_sc_hd__dfrtp_1
*I *1178:CLK I *D sky130_fd_sc_hd__dfrtp_1
*I *1201:X O *D sky130_fd_sc_hd__clkbuf_16
*CAP
1 *1139:CLK 0
2 *1170:CLK 0
3 *1146:CLK 0
4 *1137:CLK 0
5 *1179:CLK 8.36239e-05
6 *1138:CLK 8.51823e-05
7 *1178:CLK 0.000232992
8 *1201:X 0.000515339
9 *245:76 0.000749469
10 *245:63 0.0010917
11 *245:40 0.000459945
12 *245:25 0.00077559
13 *245:14 0.000816237
14 *245:12 0.000451182
15 *245:10 0.000524251
16 *245:8 0.000515339
17 *1178:CLK *280:10 4.72141e-05
18 *1179:CLK *1179:RESET_B 0.000151392
19 *245:8 *1074:A1 4.61458e-05
20 *245:8 *1207:A 0.000116224
21 *245:8 *256:344 0
22 *245:8 *256:354 0
23 *245:8 *256:367 0
24 *245:8 *324:81 0
25 *245:12 *1146:RESET_B 9.62666e-05
26 *245:25 *303:30 0
27 *245:40 *1179:RESET_B 7.87147e-05
28 *245:40 *292:8 0
29 *245:63 *1146:RESET_B 1.94432e-05
30 *245:76 *1139:RESET_B 8.79516e-05
31 *245:76 *1170:RESET_B 0.000161188
32 *245:76 *335:12 1.55261e-05
33 *245:76 *335:27 0.000164486
34 *1137:D *1179:CLK 0.000100069
35 *1137:D *245:40 7.12002e-05
36 *1138:D *1138:CLK 7.4525e-05
37 *1139:D *245:76 7.47551e-05
38 *1146:D *245:12 3.22511e-05
39 *1179:D *1179:CLK 2.93335e-05
40 *30:47 *245:25 0
41 *30:47 *245:40 0
42 *30:70 *1179:CLK 3.76416e-05
43 *30:70 *245:76 0.000225857
44 *93:219 *245:63 0
45 *102:43 *245:8 0
46 *158:23 *245:76 0.000236881
47 *176:8 *245:8 0.000166522
48 *176:8 *245:63 0
49 *204:10 *245:63 0.000170413
50 *204:10 *245:76 2.53488e-05
*RES
1 *1201:X *245:8 48.7093 
2 *245:8 *245:10 15 
3 *245:10 *245:12 3.48 
4 *245:12 *245:14 4.43286 
5 *245:14 *1178:CLK 26.9564 
6 *245:14 *245:25 20.7793 
7 *245:25 *1138:CLK 39.5743 
8 *245:25 *245:40 22.3536 
9 *245:40 *1179:CLK 26.0036 
10 *245:40 *1137:CLK 23 
11 *245:12 *1146:CLK 23 
12 *245:10 *245:63 22.0429 
13 *245:63 *1170:CLK 38 
14 *245:63 *245:76 32.1929 
15 *245:76 *1139:CLK 23 
*END

*D_NET *246 0.0116459
*CONN
*I *1175:CLK I *D sky130_fd_sc_hd__dfrtp_1
*I *1176:CLK I *D sky130_fd_sc_hd__dfrtp_1
*I *1141:CLK I *D sky130_fd_sc_hd__dfrtp_1
*I *1142:CLK I *D sky130_fd_sc_hd__dfrtp_1
*I *1187:CLK I *D sky130_fd_sc_hd__dfrtp_1
*I *1186:CLK I *D sky130_fd_sc_hd__dfrtp_1
*I *1174:CLK I *D sky130_fd_sc_hd__dfrtp_1
*I *1191:CLK I *D sky130_fd_sc_hd__dfrtp_1
*I *1202:X O *D sky130_fd_sc_hd__clkbuf_16
*CAP
1 *1175:CLK 0.000158422
2 *1176:CLK 0.000235019
3 *1141:CLK 0
4 *1142:CLK 4.47316e-05
5 *1187:CLK 5.63913e-05
6 *1186:CLK 0.00017754
7 *1174:CLK 0.000383103
8 *1191:CLK 0.0003231
9 *1202:X 0.000195191
10 *246:89 8.07673e-05
11 *246:83 0.00104957
12 *246:52 0.00108953
13 *246:48 0.0010602
14 *246:46 0.00110966
15 *246:38 0.000578728
16 *246:23 0.000772437
17 *246:10 0.000703333
18 *1176:CLK *294:10 2.64616e-05
19 *246:23 *1191:RESET_B 6.22448e-06
20 *246:38 *1191:RESET_B 2.9986e-05
21 *246:46 *1191:RESET_B 0.000120237
22 *246:52 *942:A 2.66062e-05
23 *246:83 *1142:RESET_B 1.16936e-05
24 *246:83 *1221:A 2.95526e-05
25 *955:A_N *1186:CLK 5.18278e-05
26 *1007:S *246:89 0.000223805
27 *1083:A *1175:CLK 0.000137525
28 *1124:A *246:10 0.000106277
29 *1142:D *246:48 2.45549e-06
30 *1142:D *246:83 2.85723e-05
31 *1175:D *1175:CLK 5.3304e-05
32 *1191:D *1191:CLK 0.000128096
33 *30:109 *1174:CLK 0.000571965
34 *89:10 *246:10 8.29264e-05
35 *89:10 *246:23 6.15719e-05
36 *97:33 *1174:CLK 6.74953e-05
37 *97:33 *246:23 9.48534e-05
38 *102:112 *246:10 0
39 *102:112 *246:23 0
40 *102:112 *246:38 0
41 *113:28 *1142:CLK 6.91908e-05
42 *113:28 *246:46 0.000187765
43 *113:28 *246:48 1.71017e-05
44 *113:28 *246:52 6.3568e-05
45 *115:14 *246:52 0.000692518
46 *126:187 *1174:CLK 3.65917e-05
47 *126:187 *1191:CLK 2.20111e-05
48 *126:187 *246:23 0
49 *126:198 *1174:CLK 0.000216885
50 *126:228 *246:89 0.000108713
51 *127:34 *1186:CLK 0.000137744
52 *134:8 *246:46 8.57485e-05
53 *219:10 *1186:CLK 0.000104295
54 *219:10 *1187:CLK 2.46399e-05
*RES
1 *1202:X *246:10 41.2521 
2 *246:10 *1191:CLK 42.8057 
3 *246:10 *246:23 4.01857 
4 *246:23 *1174:CLK 49.5793 
5 *246:23 *246:38 18.7079 
6 *246:38 *246:46 35.22 
7 *246:46 *246:48 2.05071 
8 *246:48 *246:52 28.0086 
9 *246:52 *1186:CLK 42.7229 
10 *246:52 *1187:CLK 38.8493 
11 *246:48 *1142:CLK 24.4707 
12 *246:46 *246:83 9.57 
13 *246:83 *246:89 32.9621 
14 *246:89 *1141:CLK 23 
15 *246:83 *1176:CLK 26.48 
16 *246:38 *1175:CLK 26.0036 
*END

*D_NET *247 0.014401
*CONN
*I *1134:CLK I *D sky130_fd_sc_hd__dfrtp_1
*I *1185:CLK I *D sky130_fd_sc_hd__dfrtp_1
*I *1184:CLK I *D sky130_fd_sc_hd__dfrtp_1
*I *1180:CLK I *D sky130_fd_sc_hd__dfrtp_1
*I *1177:CLK I *D sky130_fd_sc_hd__dfrtp_1
*I *1136:CLK I *D sky130_fd_sc_hd__dfrtp_1
*I *1140:CLK I *D sky130_fd_sc_hd__dfrtp_1
*I *1135:CLK I *D sky130_fd_sc_hd__dfrtp_1
*I *1173:CLK I *D sky130_fd_sc_hd__dfrtp_1
*I *1183:CLK I *D sky130_fd_sc_hd__dfrtp_4
*I *1188:CLK I *D sky130_fd_sc_hd__dfrtp_1
*I *1203:X O *D sky130_fd_sc_hd__clkbuf_16
*CAP
1 *1134:CLK 0.000409274
2 *1185:CLK 0
3 *1184:CLK 0
4 *1180:CLK 0
5 *1177:CLK 0.000141348
6 *1136:CLK 0.000443906
7 *1140:CLK 0.000393671
8 *1135:CLK 0
9 *1173:CLK 0
10 *1183:CLK 0
11 *1188:CLK 0.000314689
12 *1203:X 0.000223926
13 *247:127 0.000195257
14 *247:115 0.000794215
15 *247:103 0.00101036
16 *247:97 0.0011312
17 *247:64 0.000837578
18 *247:62 0.000748038
19 *247:49 0.000170841
20 *247:41 0.00106701
21 *247:32 0.000357158
22 *247:26 0.000605013
23 *247:12 0.000758489
24 *247:8 0.000894537
25 *1136:CLK *318:8 6.79467e-05
26 *1136:CLK *328:14 4.33069e-05
27 *1140:CLK *318:8 1.58805e-05
28 *1140:CLK *358:27 2.02517e-05
29 *1177:CLK *989:A0 4.79641e-05
30 *1177:CLK *270:18 6.23604e-05
31 *247:8 *256:688 0
32 *247:8 *256:696 0
33 *247:12 *1183:RESET_B 2.33744e-05
34 *247:26 *256:688 0
35 *247:49 *256:753 9.03221e-05
36 *247:62 *989:A0 0.000142645
37 *247:62 *1173:RESET_B 0.00034881
38 *247:62 *358:12 5.21059e-05
39 *247:97 *256:688 0
40 *247:97 *256:753 0
41 *247:103 *1185:RESET_B 2.57362e-05
42 *1087:A *1177:CLK 5.50049e-05
43 *1100:B *1188:CLK 2.64616e-05
44 *1100:C *1188:CLK 5.12254e-05
45 *1102:A *1188:CLK 4.01634e-05
46 *1102:B *1188:CLK 7.88926e-05
47 *1102:C *1188:CLK 2.25517e-05
48 *1173:D *247:32 5.65426e-05
49 *1173:D *247:41 1.44293e-05
50 *1177:D *1177:CLK 5.79559e-05
51 *1180:D *247:127 3.26241e-05
52 *1183:D *247:12 1.10317e-05
53 *73:10 *247:26 8.4047e-05
54 *83:10 *247:127 3.50862e-06
55 *93:277 *1136:CLK 4.04496e-05
56 *99:22 *247:49 0.000362289
57 *99:124 *247:103 0.000154892
58 *99:124 *247:115 2.10502e-05
59 *102:10 *247:26 1.12919e-05
60 *102:10 *247:97 8.21731e-05
61 *102:108 *247:8 0.000372793
62 *102:108 *247:26 0.00012277
63 *114:8 *247:8 0
64 *126:242 *247:49 0.000213249
65 *127:61 *1188:CLK 8.638e-05
66 *152:10 *1136:CLK 4.70114e-05
67 *154:21 *1136:CLK 0.000546583
68 *154:21 *1140:CLK 1.14452e-05
69 *154:27 *1140:CLK 0.000162422
70 *156:10 *247:62 0.00010655
71 *215:8 *247:127 2.34077e-05
72 *222:10 *1188:CLK 3.22879e-05
73 *222:10 *247:12 3.22879e-05
*RES
1 *1203:X *247:8 43.075 
2 *247:8 *247:12 23.2443 
3 *247:12 *1188:CLK 30.2914 
4 *247:12 *1183:CLK 23 
5 *247:8 *247:26 5.075 
6 *247:26 *247:32 16.595 
7 *247:32 *1173:CLK 23 
8 *247:32 *247:41 4.93 
9 *247:41 *247:49 36.5664 
10 *247:49 *1135:CLK 23 
11 *247:41 *247:62 13.6714 
12 *247:62 *247:64 15 
13 *247:64 *1140:CLK 44.7321 
14 *247:64 *1136:CLK 49.0614 
15 *247:62 *1177:CLK 26.48 
16 *247:26 *247:97 6.13143 
17 *247:97 *247:103 23.7414 
18 *247:103 *247:115 38.7621 
19 *247:115 *247:127 33.8736 
20 *247:127 *1180:CLK 23 
21 *247:115 *1184:CLK 23 
22 *247:103 *1185:CLK 23 
23 *247:97 *1134:CLK 44.8771 
*END

*D_NET *248 0.000147136
*CONN
*I *919:A I *D sky130_fd_sc_hd__buf_4
*I *1251:X O *D sky130_fd_sc_hd__clkbuf_1
*CAP
1 *919:A 7.35678e-05
2 *1251:X 7.35678e-05
*RES
1 *1251:X *919:A 47.4707 
*END

*D_NET *249 0.00458514
*CONN
*I *1013:A2 I *D sky130_fd_sc_hd__a22o_1
*I *1014:A2 I *D sky130_fd_sc_hd__o221a_2
*I *1019:A2 I *D sky130_fd_sc_hd__a21o_1
*I *1252:X O *D sky130_fd_sc_hd__buf_1
*CAP
1 *1013:A2 0
2 *1014:A2 0
3 *1019:A2 1.92666e-05
4 *1252:X 0.00048908
5 *249:37 0.000361404
6 *249:27 0.000694853
7 *249:10 0.000645497
8 *249:8 0.000781861
9 *1019:A2 *272:12 5.70275e-06
10 *249:27 *256:189 0.000141572
11 *249:37 *256:189 0
12 *249:37 *320:30 0
13 *249:37 *320:47 5.09782e-05
14 *1014:A1 *249:37 8.57537e-05
15 *93:18 *249:27 0.000435014
16 *93:30 *1019:A2 3.85722e-05
17 *93:30 *249:10 0.000513606
18 *93:54 *249:27 0.000148204
19 *93:54 *249:37 1.00941e-05
20 *172:10 *249:27 2.812e-05
21 *172:10 *249:37 0.000135557
*RES
1 *1252:X *249:8 44.3386 
2 *249:8 *249:10 7.18786 
3 *249:10 *1019:A2 38.5438 
4 *249:10 *249:27 23.1821 
5 *249:27 *249:37 35.3857 
6 *249:37 *1014:A2 23 
7 *249:27 *1013:A2 23 
*END

*D_NET *250 0.00880183
*CONN
*I *1032:A1 I *D sky130_fd_sc_hd__mux2_1
*I *1029:B1 I *D sky130_fd_sc_hd__o211a_1
*I *1253:X O *D sky130_fd_sc_hd__buf_1
*CAP
1 *1032:A1 0
2 *1029:B1 0.000368095
3 *1253:X 0.000959961
4 *250:29 0.000115354
5 *250:14 0.00174337
6 *250:12 0.00221988
7 *1029:B1 *1028:A 0.000317553
8 *1029:B1 *252:23 2.45549e-06
9 *250:12 *969:A 0.000397596
10 *250:12 *1047:B1 0.000249496
11 *250:12 *1215:A 5.50049e-05
12 *250:12 *255:35 0.000118217
13 *250:14 *1028:A 0.000395318
14 *250:14 *1047:B1 1.71761e-05
15 *250:14 *255:22 0.00042477
16 *250:14 *313:10 5.79559e-05
17 *250:29 *313:10 6.32792e-05
18 *250:29 *345:10 0
19 *1029:A2 *1029:B1 0.000336642
20 *1047:A2 *250:14 0.000187008
21 *1049:A *250:14 7.88926e-05
22 *1253:A *250:12 2.93431e-05
23 *1258:A *1029:B1 1.22822e-05
24 *1267:A *250:14 7.88926e-05
25 *57:10 *250:14 9.88259e-05
26 *181:8 *1029:B1 0.000463023
27 *184:32 *250:29 1.14452e-05
28 *185:10 *250:29 0
*RES
1 *1253:X *250:12 42.865 
2 *250:12 *250:14 26.825 
3 *250:14 *1029:B1 33.5229 
4 *250:14 *250:29 32.2579 
5 *250:29 *1032:A1 23 
*END

*D_NET *251 0.00567337
*CONN
*I *1029:A1 I *D sky130_fd_sc_hd__o211a_1
*I *1030:B1 I *D sky130_fd_sc_hd__a22o_1
*I *1034:A1 I *D sky130_fd_sc_hd__mux2_1
*I *1254:X O *D sky130_fd_sc_hd__buf_1
*CAP
1 *1029:A1 3.84874e-05
2 *1030:B1 0.000100918
3 *1034:A1 0.000167581
4 *1254:X 0.000739045
5 *251:35 0.000707147
6 *251:14 0.00107547
7 *251:6 0.00107919
8 *1029:A1 *252:23 1.32939e-05
9 *1034:A1 *320:22 0
10 *1034:A1 *346:14 0.000141038
11 *251:6 *1036:B1 0.000447504
12 *251:6 *252:23 0.000149777
13 *251:14 *252:23 6.7177e-06
14 *251:14 *320:22 0
15 *1029:A2 *1029:A1 6.68617e-05
16 *1030:A1 *1030:B1 3.91386e-05
17 *1149:D *251:35 5.3304e-05
18 *1158:CLK *1030:B1 5.50106e-05
19 *1158:CLK *251:35 8.4047e-05
20 *51:10 *251:6 0.000230604
21 *180:25 *1030:B1 1.41077e-05
22 *182:10 *1029:A1 5.50106e-05
23 *182:10 *251:6 9.84794e-05
24 *182:10 *251:14 0.0001151
25 *184:65 *1034:A1 0
26 *184:65 *251:14 0
27 *240:48 *251:35 2.80394e-05
28 *240:50 *251:35 0.000167489
*RES
1 *1254:X *251:6 39.3436 
2 *251:6 *251:14 19.9611 
3 *251:14 *1034:A1 41.8425 
4 *251:14 *251:35 38.9589 
5 *251:35 *1030:B1 39.595 
6 *251:6 *1029:A1 24.4707 
*END

*D_NET *252 0.00337655
*CONN
*I *1030:A2 I *D sky130_fd_sc_hd__a22o_1
*I *1031:A2 I *D sky130_fd_sc_hd__o221a_2
*I *1036:A2 I *D sky130_fd_sc_hd__a21o_1
*I *1255:X O *D sky130_fd_sc_hd__buf_1
*CAP
1 *1030:A2 0.000130317
2 *1031:A2 0
3 *1036:A2 0.00012151
4 *1255:X 0
5 *252:23 0.00105736
6 *252:4 0.00104855
7 *1036:A2 *1036:B1 7.83235e-05
8 *252:23 *1036:B1 6.71295e-05
9 *252:23 *320:22 0
10 *252:23 *346:27 0
11 *1029:A1 *252:23 1.32939e-05
12 *1029:A2 *252:23 4.37586e-06
13 *1029:B1 *252:23 2.45549e-06
14 *1030:A1 *1030:A2 0.000132375
15 *1031:A1 *1030:A2 9.84851e-05
16 *1031:B2 *1030:A2 0.000223698
17 *1258:A *252:23 0
18 *93:30 *1036:A2 1.24376e-05
19 *180:25 *1030:A2 7.99385e-05
20 *182:10 *252:23 7.03766e-05
21 *184:8 *1030:A2 5.3304e-05
22 *184:20 *1030:A2 7.43025e-06
23 *184:20 *252:23 1.86869e-05
24 *251:6 *252:23 0.000149777
25 *251:14 *252:23 6.7177e-06
*RES
1 *1255:X *252:4 23 
2 *252:4 *1036:A2 25.5686 
3 *252:4 *252:23 43.34 
4 *252:23 *1031:A2 23 
5 *252:23 *1030:A2 27.9714 
*END

*D_NET *253 0.0166492
*CONN
*I *972:B1 I *D sky130_fd_sc_hd__o211a_1
*I *1043:A1 I *D sky130_fd_sc_hd__mux2_1
*I *1256:X O *D sky130_fd_sc_hd__buf_1
*CAP
1 *972:B1 0.000195781
2 *1043:A1 0
3 *1256:X 0.000134595
4 *253:72 0.000800563
5 *253:66 0.00190418
6 *253:58 0.00253942
7 *253:44 0.00215857
8 *253:22 0.0028689
9 *253:8 0.00208494
10 *253:8 *314:22 0.000187199
11 *253:22 *307:10 0
12 *253:22 *361:8 0
13 *253:22 *361:12 0
14 *253:22 *375:10 0.000164282
15 *253:22 *375:20 0.00016693
16 *253:22 *376:8 0.000112303
17 *253:44 *948:B1 8.65413e-06
18 *253:44 *1116:B1 5.50106e-05
19 *253:44 *1190:RESET_B 0
20 *253:58 *946:B 0
21 *253:58 *295:10 0
22 *253:58 *369:8 0
23 *253:66 *1050:A1 7.64964e-05
24 *253:66 *1194:RESET_B 0.000138747
25 *253:66 *1214:A 5.07601e-05
26 *253:66 *1229:A 9.41704e-05
27 *253:66 *301:29 5.27453e-05
28 *253:72 *1043:A0 3.86731e-05
29 *253:72 *326:100 1.35999e-05
30 *938:A1 *253:22 3.34042e-05
31 *972:C1 *972:B1 5.58003e-05
32 *1044:A *253:72 0.000202928
33 *1116:A2 *253:44 8.49226e-05
34 *39:8 *253:22 0
35 *55:10 *253:72 3.22051e-05
36 *93:112 *253:58 0
37 *93:213 *253:22 0
38 *98:30 *253:44 0
39 *98:38 *253:44 0
40 *106:10 *253:22 1.26005e-05
41 *108:10 *253:22 0.000343212
42 *108:29 *253:22 1.5759e-05
43 *115:38 *253:22 0.000192032
44 *119:8 *253:58 0.000171227
45 *122:12 *253:44 0.000108927
46 *124:10 *253:44 0.000198081
47 *124:14 *253:44 0.000358099
48 *124:23 *253:44 1.40958e-05
49 *124:55 *253:44 3.75055e-05
50 *126:22 *253:58 0.000376379
51 *126:113 *253:44 0
52 *126:113 *253:58 0
53 *130:10 *253:22 9.36134e-05
54 *130:10 *253:44 9.58714e-05
55 *130:40 *253:22 0.000179981
56 *137:10 *253:22 5.97009e-05
57 *141:18 *972:B1 1.12796e-05
58 *145:26 *972:B1 3.00511e-05
59 *161:8 *253:22 0
60 *184:44 *253:58 1.13812e-05
61 *239:18 *253:22 0
62 *242:31 *253:66 5.26901e-05
63 *242:46 *253:66 3.0918e-05
*RES
1 *1256:X *253:8 40.0507 
2 *253:8 *253:22 40.4757 
3 *253:22 *253:44 49.3782 
4 *253:44 *253:58 38.2518 
5 *253:58 *253:66 47.7729 
6 *253:66 *253:72 11.6207 
7 *253:72 *1043:A1 23 
8 *253:72 *972:B1 26.5007 
*END

*D_NET *254 0.00347265
*CONN
*I *973:B1 I *D sky130_fd_sc_hd__a22o_1
*I *1045:A1 I *D sky130_fd_sc_hd__mux2_1
*I *972:A1 I *D sky130_fd_sc_hd__o211a_1
*I *1257:X O *D sky130_fd_sc_hd__buf_1
*CAP
1 *973:B1 0
2 *1045:A1 0.000175437
3 *972:A1 0.000436046
4 *1257:X 0.000667474
5 *254:14 0.000782889
6 *254:10 0.000838879
7 *972:A1 *1156:RESET_B 3.43965e-05
8 *1045:A1 *1045:A0 5.76359e-05
9 *254:10 *973:A2 2.02517e-05
10 *1046:A *254:10 2.4754e-05
11 *1156:D *972:A1 5.14746e-06
12 *1257:A *254:10 0
13 *141:18 *972:A1 0.000186329
14 *141:31 *254:10 0.00010018
15 *141:31 *254:14 0
16 *145:10 *254:14 0
17 *191:8 *1045:A1 3.88725e-05
18 *191:8 *254:14 0.000104352
*RES
1 *1257:X *254:10 35.5736 
2 *254:10 *254:14 18.6664 
3 *254:14 *972:A1 45.2086 
4 *254:14 *1045:A1 41.625 
5 *254:10 *973:B1 23 
*END

*D_NET *255 0.0079518
*CONN
*I *973:A2 I *D sky130_fd_sc_hd__a22o_1
*I *974:A2 I *D sky130_fd_sc_hd__o221a_2
*I *1047:A1 I *D sky130_fd_sc_hd__a21o_1
*I *1258:X O *D sky130_fd_sc_hd__buf_1
*CAP
1 *973:A2 0.000119146
2 *974:A2 0
3 *1047:A1 0
4 *1258:X 7.63852e-05
5 *255:35 0.000759451
6 *255:22 0.00130229
7 *255:16 0.00144981
8 *255:8 0.000864216
9 *255:16 *320:14 0.00114357
10 *255:35 *969:A 0.000170365
11 *255:35 *1047:B1 0.000366442
12 *255:35 *1215:A 3.22879e-05
13 *255:35 *262:18 0
14 *973:A1 *973:A2 9.74722e-05
15 *974:A1 *973:A2 5.50049e-05
16 *974:B1 *973:A2 1.24376e-05
17 *974:B2 *973:A2 0.000226306
18 *1047:A2 *255:22 3.22467e-05
19 *1047:A2 *255:35 4.9486e-05
20 *1258:A *255:8 0
21 *1267:A *255:16 8.62876e-05
22 *1267:A *255:22 0.00014196
23 *24:10 *255:35 0.000361027
24 *140:8 *255:35 4.23714e-05
25 *250:12 *255:35 0.000118217
26 *250:14 *255:22 0.00042477
27 *254:10 *973:A2 2.02517e-05
*RES
1 *1258:X *255:8 39.2014 
2 *255:8 *255:16 43.7336 
3 *255:16 *255:22 29.4586 
4 *255:22 *1047:A1 23 
5 *255:22 *255:35 45.37 
6 *255:35 *974:A2 23 
7 *255:35 *973:A2 26.9771 
*END

*D_NET *256 0.0954075
*CONN
*I *1136:RESET_B I *D sky130_fd_sc_hd__dfrtp_1
*I *1134:RESET_B I *D sky130_fd_sc_hd__dfrtp_1
*I *1180:RESET_B I *D sky130_fd_sc_hd__dfrtp_1
*I *1184:RESET_B I *D sky130_fd_sc_hd__dfrtp_1
*I *1185:RESET_B I *D sky130_fd_sc_hd__dfrtp_1
*I *1183:RESET_B I *D sky130_fd_sc_hd__dfrtp_4
*I *1142:RESET_B I *D sky130_fd_sc_hd__dfrtp_1
*I *1191:RESET_B I *D sky130_fd_sc_hd__dfrtp_1
*I *1187:RESET_B I *D sky130_fd_sc_hd__dfrtp_1
*I *1186:RESET_B I *D sky130_fd_sc_hd__dfrtp_1
*I *1173:RESET_B I *D sky130_fd_sc_hd__dfrtp_1
*I *1135:RESET_B I *D sky130_fd_sc_hd__dfrtp_1
*I *1177:RESET_B I *D sky130_fd_sc_hd__dfrtp_1
*I *1140:RESET_B I *D sky130_fd_sc_hd__dfrtp_1
*I *1141:RESET_B I *D sky130_fd_sc_hd__dfrtp_1
*I *1176:RESET_B I *D sky130_fd_sc_hd__dfrtp_1
*I *1175:RESET_B I *D sky130_fd_sc_hd__dfrtp_1
*I *1174:RESET_B I *D sky130_fd_sc_hd__dfrtp_1
*I *1161:RESET_B I *D sky130_fd_sc_hd__dfrtp_1
*I *1162:RESET_B I *D sky130_fd_sc_hd__dfrtp_1
*I *1131:RESET_B I *D sky130_fd_sc_hd__dfrtp_1
*I *1165:RESET_B I *D sky130_fd_sc_hd__dfrtp_1
*I *1168:RESET_B I *D sky130_fd_sc_hd__dfrtp_1
*I *1166:RESET_B I *D sky130_fd_sc_hd__dfrtp_1
*I *1159:RESET_B I *D sky130_fd_sc_hd__dfrtp_1
*I *1149:RESET_B I *D sky130_fd_sc_hd__dfrtp_1
*I *1158:RESET_B I *D sky130_fd_sc_hd__dfrtp_1
*I *1167:RESET_B I *D sky130_fd_sc_hd__dfrtp_1
*I *1181:RESET_B I *D sky130_fd_sc_hd__dfrtp_1
*I *1190:RESET_B I *D sky130_fd_sc_hd__dfrtp_1
*I *1170:RESET_B I *D sky130_fd_sc_hd__dfrtp_1
*I *1139:RESET_B I *D sky130_fd_sc_hd__dfrtp_1
*I *1178:RESET_B I *D sky130_fd_sc_hd__dfrtp_1
*I *1182:RESET_B I *D sky130_fd_sc_hd__dfrtp_1
*I *1179:RESET_B I *D sky130_fd_sc_hd__dfrtp_1
*I *1137:RESET_B I *D sky130_fd_sc_hd__dfrtp_1
*I *1138:RESET_B I *D sky130_fd_sc_hd__dfrtp_1
*I *1146:RESET_B I *D sky130_fd_sc_hd__dfrtp_1
*I *1188:RESET_B I *D sky130_fd_sc_hd__dfrtp_1
*I *1172:RESET_B I *D sky130_fd_sc_hd__dfrtp_1
*I *1148:RESET_B I *D sky130_fd_sc_hd__dfrtp_1
*I *1171:RESET_B I *D sky130_fd_sc_hd__dfrtp_1
*I *1147:RESET_B I *D sky130_fd_sc_hd__dfrtp_1
*I *1189:RESET_B I *D sky130_fd_sc_hd__dfrtp_1
*I *1154:RESET_B I *D sky130_fd_sc_hd__dfrtp_1
*I *1169:RESET_B I *D sky130_fd_sc_hd__dfrtp_1
*I *1152:RESET_B I *D sky130_fd_sc_hd__dfrtp_1
*I *1153:RESET_B I *D sky130_fd_sc_hd__dfrtp_1
*I *1160:RESET_B I *D sky130_fd_sc_hd__dfrtp_1
*I *1150:RESET_B I *D sky130_fd_sc_hd__dfrtp_1
*I *1151:RESET_B I *D sky130_fd_sc_hd__dfrtp_1
*I *1145:RESET_B I *D sky130_fd_sc_hd__dfrtp_1
*I *1144:RESET_B I *D sky130_fd_sc_hd__dfrtp_1
*I *1143:RESET_B I *D sky130_fd_sc_hd__dfrtp_1
*I *1164:RESET_B I *D sky130_fd_sc_hd__dfrtp_1
*I *1163:RESET_B I *D sky130_fd_sc_hd__dfrtp_1
*I *1133:RESET_B I *D sky130_fd_sc_hd__dfrtp_1
*I *1192:RESET_B I *D sky130_fd_sc_hd__dfrtp_4
*I *1193:RESET_B I *D sky130_fd_sc_hd__dfrtp_4
*I *1194:RESET_B I *D sky130_fd_sc_hd__dfrtp_4
*I *1130:RESET_B I *D sky130_fd_sc_hd__dfrtp_1
*I *1157:RESET_B I *D sky130_fd_sc_hd__dfrtp_1
*I *1155:RESET_B I *D sky130_fd_sc_hd__dfrtp_1
*I *1156:RESET_B I *D sky130_fd_sc_hd__dfrtp_1
*I *1132:RESET_B I *D sky130_fd_sc_hd__dfrtp_1
*I *1259:X O *D sky130_fd_sc_hd__buf_12
*CAP
1 *1136:RESET_B 0.000546377
2 *1134:RESET_B 0.000466579
3 *1180:RESET_B 0.000185784
4 *1184:RESET_B 3.52537e-05
5 *1185:RESET_B 0.000253108
6 *1183:RESET_B 0.00026835
7 *1142:RESET_B 0.000149679
8 *1191:RESET_B 0.000453564
9 *1187:RESET_B 0
10 *1186:RESET_B 0.000303199
11 *1173:RESET_B 0.000402567
12 *1135:RESET_B 1.54164e-05
13 *1177:RESET_B 8.57733e-05
14 *1140:RESET_B 9.05746e-05
15 *1141:RESET_B 6.18264e-05
16 *1176:RESET_B 0
17 *1175:RESET_B 0.000331998
18 *1174:RESET_B 3.19658e-05
19 *1161:RESET_B 9.64494e-05
20 *1162:RESET_B 7.30798e-05
21 *1131:RESET_B 0.000157115
22 *1165:RESET_B 7.5762e-06
23 *1168:RESET_B 8.43852e-05
24 *1166:RESET_B 0
25 *1159:RESET_B 0.000329694
26 *1149:RESET_B 0
27 *1158:RESET_B 0.00068386
28 *1167:RESET_B 1.42892e-05
29 *1181:RESET_B 0.00104381
30 *1190:RESET_B 0.000185646
31 *1170:RESET_B 0.000518539
32 *1139:RESET_B 0.000864615
33 *1178:RESET_B 6.20006e-05
34 *1182:RESET_B 0.000919177
35 *1179:RESET_B 0.00182603
36 *1137:RESET_B 0.000313436
37 *1138:RESET_B 0
38 *1146:RESET_B 0.000142391
39 *1188:RESET_B 0.0004591
40 *1172:RESET_B 0.0004591
41 *1148:RESET_B 0.000301825
42 *1171:RESET_B 0
43 *1147:RESET_B 0
44 *1189:RESET_B 0.000419675
45 *1154:RESET_B 0.000354495
46 *1169:RESET_B 4.76236e-05
47 *1152:RESET_B 6.9506e-05
48 *1153:RESET_B 6.64036e-05
49 *1160:RESET_B 3.57497e-05
50 *1150:RESET_B 0.000409822
51 *1151:RESET_B 7.61217e-05
52 *1145:RESET_B 3.5571e-05
53 *1144:RESET_B 0
54 *1143:RESET_B 0.000380483
55 *1164:RESET_B 0.00159207
56 *1163:RESET_B 0.001421
57 *1133:RESET_B 0.0008522
58 *1192:RESET_B 0
59 *1193:RESET_B 3.04823e-05
60 *1194:RESET_B 0.000355182
61 *1130:RESET_B 0
62 *1157:RESET_B 0.000241388
63 *1155:RESET_B 0.000684561
64 *1156:RESET_B 0.000249677
65 *1132:RESET_B 5.62166e-05
66 *1259:X 7.27477e-05
67 *256:771 0.00105362
68 *256:753 0.00137428
69 *256:720 0.000822122
70 *256:702 0.00112448
71 *256:696 0.00122394
72 *256:688 0.000860592
73 *256:682 0.00079325
74 *256:668 0.00116953
75 *256:656 0.000664213
76 *256:654 0.00102487
77 *256:638 0.00044698
78 *256:628 0.00063849
79 *256:618 0.000529749
80 *256:611 0.000262976
81 *256:599 0.000759171
82 *256:589 0.000543444
83 *256:512 0.00100496
84 *256:510 0.0010134
85 *256:471 0.00181134
86 *256:461 0.00128947
87 *256:405 0.00150698
88 *256:393 0.00168834
89 *256:377 0.000485281
90 *256:367 0.000540185
91 *256:354 0.000260391
92 *256:344 0.000509987
93 *256:337 0.000227318
94 *256:330 0.000309501
95 *256:318 0.000739499
96 *256:296 0.000591375
97 *256:292 0.000572199
98 *256:286 0.00123997
99 *256:266 0.000604966
100 *256:254 0.000788086
101 *256:222 0.000978047
102 *256:210 0.000565057
103 *256:189 0.000885951
104 *256:179 0.000992894
105 *256:177 0.00153643
106 *256:175 0.00104169
107 *256:171 0.000301754
108 *256:169 0.000529197
109 *256:165 0.000891417
110 *256:83 0.000565942
111 *256:77 0.000967536
112 *256:64 0.000967681
113 *256:40 0.00117823
114 *256:38 0.000448904
115 *256:36 0.000741261
116 *256:26 0.000664474
117 *256:16 0.000967029
118 *256:12 0.000610667
119 *256:10 0.000411626
120 *256:8 0.000513861
121 *1133:RESET_B *1220:A 0.00031495
122 *1134:RESET_B *327:6 2.45549e-06
123 *1134:RESET_B *327:12 7.51578e-05
124 *1136:RESET_B *270:52 0.000408579
125 *1136:RESET_B *281:29 5.05651e-05
126 *1137:RESET_B *303:47 0.000181797
127 *1137:RESET_B *303:68 6.48595e-05
128 *1137:RESET_B *311:8 0.000135616
129 *1139:RESET_B *333:8 2.93747e-05
130 *1139:RESET_B *335:12 5.5792e-05
131 *1139:RESET_B *335:27 3.92437e-05
132 *1141:RESET_B *355:44 8.97328e-05
133 *1143:RESET_B *319:10 9.90035e-05
134 *1143:RESET_B *319:20 0.000224345
135 *1148:RESET_B *326:80 0.000143655
136 *1148:RESET_B *332:12 0.000569509
137 *1150:RESET_B *1026:A 3.22879e-05
138 *1150:RESET_B *320:22 0.000139568
139 *1150:RESET_B *347:6 0.000177528
140 *1154:RESET_B *1070:A0 0.000113868
141 *1154:RESET_B *277:21 0.000139357
142 *1154:RESET_B *285:8 2.79004e-05
143 *1154:RESET_B *303:12 0.000142029
144 *1154:RESET_B *325:64 0.000276775
145 *1154:RESET_B *338:10 0.000231164
146 *1155:RESET_B *1236:A 6.43401e-05
147 *1155:RESET_B *309:10 1.37872e-05
148 *1155:RESET_B *351:6 4.42603e-05
149 *1157:RESET_B *262:18 0
150 *1157:RESET_B *309:10 8.57485e-05
151 *1157:RESET_B *326:111 8.77263e-05
152 *1159:RESET_B *326:36 0.00013112
153 *1162:RESET_B *371:8 0.000134166
154 *1163:RESET_B *1224:A 8.75212e-05
155 *1163:RESET_B *372:12 6.42367e-05
156 *1164:RESET_B *1222:A 0.000228909
157 *1164:RESET_B *1224:A 0
158 *1164:RESET_B *367:6 2.56078e-05
159 *1164:RESET_B *367:12 1.97329e-05
160 *1164:RESET_B *372:12 7.53384e-06
161 *1167:RESET_B *951:A2 1.12695e-05
162 *1170:RESET_B *314:28 8.91405e-05
163 *1173:RESET_B *270:30 0
164 *1173:RESET_B *358:12 9.54129e-05
165 *1175:RESET_B *1080:A0 0.000278204
166 *1175:RESET_B *299:12 5.82853e-05
167 *1177:RESET_B *270:16 0.000136478
168 *1177:RESET_B *270:18 5.3304e-05
169 *1181:RESET_B *266:10 0.000145163
170 *1182:RESET_B *263:18 0.000196165
171 *1182:RESET_B *319:10 0
172 *1183:RESET_B *355:6 5.40241e-05
173 *1185:RESET_B *357:10 0.000187389
174 *1188:RESET_B *363:12 6.15739e-05
175 *1188:RESET_B *363:21 2.80512e-05
176 *1188:RESET_B *363:38 0.0002263
177 *1188:RESET_B *375:10 6.87927e-05
178 *1190:RESET_B *324:70 0.000138859
179 *1191:RESET_B *355:31 0.000494748
180 *1193:RESET_B *325:8 2.84479e-05
181 *1194:RESET_B *326:8 4.17736e-05
182 *1194:RESET_B *326:18 5.00902e-05
183 *1194:RESET_B *326:100 8.62876e-05
184 *256:12 *370:46 0.000153164
185 *256:12 *371:36 3.46013e-05
186 *256:16 *370:46 0.000138747
187 *256:16 *371:36 0.000140875
188 *256:26 *349:10 0.000270406
189 *256:36 *977:A0 0.000125894
190 *256:36 *325:97 0.000129504
191 *256:36 *325:112 0.000303269
192 *256:38 *324:106 0
193 *256:38 *325:97 0.00018557
194 *256:77 *325:8 6.96978e-05
195 *256:77 *325:97 0.000469711
196 *256:77 *326:111 3.49736e-05
197 *256:83 *325:8 3.20619e-05
198 *256:165 *367:6 5.88446e-05
199 *256:169 *1064:A0 0.000526048
200 *256:171 *291:21 0.000119725
201 *256:175 *291:21 5.12397e-05
202 *256:189 *320:47 0
203 *256:254 *326:53 0.000476799
204 *256:266 *325:64 0.000373837
205 *256:266 *326:53 3.96058e-05
206 *256:286 *1041:A0 0.000102488
207 *256:286 *1066:A1 6.81213e-05
208 *256:286 *325:64 0.000291474
209 *256:292 *1041:A0 0
210 *256:292 *277:21 0
211 *256:292 *324:81 0
212 *256:292 *325:64 0
213 *256:296 *366:6 0.000123924
214 *256:318 *324:81 0
215 *256:330 *324:81 0
216 *256:337 *296:10 0.000192032
217 *256:344 *1074:A1 0.000266345
218 *256:344 *296:10 0.000113389
219 *256:354 *1207:A 0.000141879
220 *256:367 *1207:A 0.000222113
221 *256:377 *303:47 0.000193034
222 *256:405 *260:10 0.000166387
223 *256:405 *319:10 0
224 *256:461 *1066:A1 0.000217372
225 *256:471 *951:A2 0.000104341
226 *256:471 *364:6 1.94168e-05
227 *256:628 *299:12 0
228 *256:628 *321:8 8.85189e-05
229 *256:628 *322:8 0.000140642
230 *256:638 *270:52 3.47781e-05
231 *256:654 *270:52 0.000193117
232 *256:688 *355:17 0
233 *256:688 *358:12 0.000142554
234 *256:696 *355:17 0
235 *256:696 *355:53 3.32734e-05
236 *256:702 *273:8 2.56684e-05
237 *256:702 *355:53 0.000102144
238 *256:702 *355:61 8.32328e-05
239 *256:702 *374:25 5.22448e-05
240 *256:720 *355:53 4.05794e-05
241 *256:753 *357:10 2.67179e-05
242 *256:771 *926:A 5.76359e-05
243 *972:A1 *1156:RESET_B 3.43965e-05
244 *1013:B1 *256:254 7.81176e-05
245 *1014:A1 *256:189 0
246 *1024:S *1148:RESET_B 9.84794e-05
247 *1070:S *1154:RESET_B 2.93845e-05
248 *1076:S *256:344 3.70094e-05
249 *1076:S *256:354 0.000184174
250 *1076:S *256:367 0.000210659
251 *1080:S *1175:RESET_B 7.48608e-05
252 *1096:A *1181:RESET_B 2.95423e-05
253 *1117:A *256:292 0
254 *1121:A *1181:RESET_B 5.45541e-05
255 *1131:CLK *1132:RESET_B 8.92557e-05
256 *1131:CLK *256:26 0.000118972
257 *1131:D *256:26 6.29803e-05
258 *1142:D *1142:RESET_B 5.3304e-05
259 *1143:CLK *1143:RESET_B 3.06889e-05
260 *1156:D *1156:RESET_B 0.000177911
261 *1157:CLK *1194:RESET_B 0
262 *1158:CLK *1158:RESET_B 0.000548975
263 *1158:D *1158:RESET_B 0.000127306
264 *1159:CLK *1159:RESET_B 2.50118e-05
265 *1159:D *1159:RESET_B 5.5792e-05
266 *1160:D *256:179 0.00023353
267 *1165:CLK *256:169 2.32101e-05
268 *1168:CLK *1168:RESET_B 0
269 *1170:D *1170:RESET_B 5.82853e-05
270 *1179:CLK *1179:RESET_B 0.000151392
271 *1179:D *1179:RESET_B 3.24862e-05
272 *1181:CLK *1181:RESET_B 3.55402e-05
273 *1181:D *1181:RESET_B 7.50355e-05
274 *1189:D *1189:RESET_B 0.000102093
275 *1276:A *1181:RESET_B 0.000149877
276 *30:70 *1139:RESET_B 0.000303374
277 *30:70 *1179:RESET_B 4.05952e-05
278 *30:70 *256:393 2.33744e-05
279 *30:109 *1174:RESET_B 1.59201e-05
280 *30:109 *256:599 0.000218119
281 *30:109 *256:611 0.000413152
282 *30:109 *256:618 0.000140875
283 *30:109 *256:628 6.12484e-05
284 *30:119 *256:628 0
285 *30:119 *256:638 0
286 *31:8 *256:36 4.06408e-05
287 *34:10 *256:771 2.95423e-05
288 *35:8 *1134:RESET_B 7.56656e-05
289 *35:8 *1173:RESET_B 1.0092e-05
290 *42:8 *1191:RESET_B 3.46013e-05
291 *42:8 *256:720 0.000298548
292 *46:8 *256:377 8.57577e-05
293 *48:10 *1182:RESET_B 0
294 *74:10 *256:599 0
295 *76:10 *256:618 0.000111106
296 *76:10 *256:628 0.000181027
297 *93:8 *256:189 0
298 *93:18 *256:189 2.24048e-05
299 *93:30 *256:222 0
300 *93:54 *256:189 8.94394e-05
301 *93:62 *1150:RESET_B 0
302 *93:62 *256:189 0
303 *93:62 *256:222 0.000813509
304 *93:81 *256:189 0.000114092
305 *93:100 *256:169 0.000355029
306 *93:141 *1194:RESET_B 2.86109e-05
307 *93:172 *1157:RESET_B 0.000184262
308 *93:172 *256:77 6.35755e-05
309 *97:33 *1191:RESET_B 0.000163343
310 *98:38 *1190:RESET_B 8.88885e-05
311 *98:38 *256:471 0.000129647
312 *98:53 *1181:RESET_B 0.000125983
313 *99:22 *1135:RESET_B 4.70852e-05
314 *99:22 *1136:RESET_B 8.40645e-05
315 *99:22 *256:656 0.000479076
316 *99:22 *256:668 0.000156605
317 *99:47 *1161:RESET_B 9.99687e-05
318 *99:47 *256:10 0
319 *99:47 *256:589 0
320 *99:47 *256:599 0
321 *99:69 *1190:RESET_B 9.13419e-05
322 *102:54 *1188:RESET_B 6.9805e-05
323 *107:16 *1188:RESET_B 0.00043937
324 *114:8 *256:696 0.000163025
325 *121:10 *256:471 0
326 *124:55 *256:471 0.000268339
327 *126:26 *1165:RESET_B 8.96635e-06
328 *126:26 *256:165 3.87138e-06
329 *126:26 *256:169 6.98823e-05
330 *126:32 *1168:RESET_B 0.000129504
331 *126:32 *256:171 6.16531e-05
332 *126:54 *256:292 0
333 *126:54 *256:461 7.57281e-06
334 *126:69 *1154:RESET_B 0
335 *126:69 *256:292 0.000247687
336 *126:69 *256:318 0.00015954
337 *126:69 *256:330 0.000424005
338 *126:69 *256:337 0.000263571
339 *126:69 *256:344 0.000368353
340 *126:113 *1190:RESET_B 0.000188528
341 *126:113 *256:165 7.64334e-05
342 *126:113 *256:471 0.000137744
343 *126:144 *1163:RESET_B 6.38947e-05
344 *126:202 *1175:RESET_B 4.60234e-05
345 *126:242 *1173:RESET_B 0
346 *126:242 *256:682 1.09783e-05
347 *126:242 *256:688 0
348 *126:242 *256:753 0
349 *134:8 *1191:RESET_B 0.000219672
350 *134:8 *256:720 0.000129494
351 *145:10 *1156:RESET_B 0.000247312
352 *145:26 *1155:RESET_B 3.81356e-05
353 *145:40 *1156:RESET_B 6.66613e-05
354 *145:40 *256:38 0.000185626
355 *145:40 *256:40 0.000419865
356 *145:55 *256:36 0
357 *145:55 *256:38 0
358 *151:8 *1134:RESET_B 2.34077e-05
359 *156:10 *1134:RESET_B 0.000141038
360 *156:10 *1173:RESET_B 0.000220511
361 *158:23 *1170:RESET_B 0.000215252
362 *162:23 *256:377 7.66914e-06
363 *162:25 *256:367 5.26204e-05
364 *162:25 *256:377 7.31726e-05
365 *162:27 *256:367 6.7177e-06
366 *169:8 *256:254 6.57551e-05
367 *173:14 *1143:RESET_B 1.62615e-05
368 *173:14 *256:189 0.000171906
369 *173:34 *1153:RESET_B 4.81382e-05
370 *173:34 *256:254 2.60152e-05
371 *173:34 *256:266 0.000190912
372 *173:64 *256:266 0.000342214
373 *173:64 *256:286 0.000220665
374 *176:8 *256:367 3.56537e-05
375 *176:8 *256:377 5.92e-05
376 *184:32 *1158:RESET_B 0
377 *197:20 *1163:RESET_B 0.000202775
378 *197:20 *1164:RESET_B 0.00012074
379 *198:8 *1164:RESET_B 0
380 *208:10 *1175:RESET_B 0.000102389
381 *210:10 *256:628 0
382 *211:10 *256:654 0
383 *238:10 *1194:RESET_B 0
384 *239:59 *1164:RESET_B 5.15745e-05
385 *239:98 *256:461 0
386 *240:25 *256:175 0
387 *240:25 *256:510 0.000301303
388 *240:31 *1159:RESET_B 2.95526e-05
389 *240:50 *1150:RESET_B 9.60573e-05
390 *240:73 *1145:RESET_B 4.72717e-05
391 *240:73 *256:179 2.17486e-05
392 *240:73 *256:189 7.84788e-06
393 *240:125 *256:171 0
394 *240:125 *256:175 0
395 *241:72 *256:286 0.000139459
396 *243:10 *1163:RESET_B 0
397 *243:31 *1164:RESET_B 9.32674e-05
398 *243:66 *1163:RESET_B 0
399 *244:73 *256:330 0
400 *245:8 *256:344 0
401 *245:8 *256:354 0
402 *245:8 *256:367 0
403 *245:12 *1146:RESET_B 9.62666e-05
404 *245:40 *1179:RESET_B 7.87147e-05
405 *245:63 *1146:RESET_B 1.94432e-05
406 *245:76 *1139:RESET_B 8.79516e-05
407 *245:76 *1170:RESET_B 0.000161188
408 *246:23 *1191:RESET_B 6.22448e-06
409 *246:38 *1191:RESET_B 2.9986e-05
410 *246:46 *1191:RESET_B 0.000120237
411 *246:83 *1142:RESET_B 1.16936e-05
412 *247:8 *256:688 0
413 *247:8 *256:696 0
414 *247:12 *1183:RESET_B 2.33744e-05
415 *247:26 *256:688 0
416 *247:49 *256:753 9.03221e-05
417 *247:62 *1173:RESET_B 0.00034881
418 *247:97 *256:688 0
419 *247:97 *256:753 0
420 *247:103 *1185:RESET_B 2.57362e-05
421 *249:27 *256:189 0.000141572
422 *249:37 *256:189 0
423 *253:44 *1190:RESET_B 0
424 *253:66 *1194:RESET_B 0.000138747
*RES
1 *1259:X *256:8 39.0979 
2 *256:8 *256:10 2.61 
3 *256:10 *256:12 3.66643 
4 *256:12 *256:16 22.54 
5 *256:16 *256:26 8.57571 
6 *256:26 *1132:RESET_B 1.02536 
7 *256:26 *256:36 20.7793 
8 *256:36 *256:38 5.42714 
9 *256:38 *256:40 5.77929 
10 *256:40 *1156:RESET_B 21.6182 
11 *256:40 *1155:RESET_B 24.0418 
12 *1155:RESET_B *256:64 15 
13 *256:64 *1157:RESET_B 20.7793 
14 *256:64 *256:77 26.1029 
15 *256:77 *256:83 18.1279 
16 *256:83 *1130:RESET_B 15 
17 *256:83 *1194:RESET_B 22.4261 
18 *256:77 *1193:RESET_B 1.04607 
19 *256:38 *1192:RESET_B 15 
20 *256:36 *1133:RESET_B 22.2189 
21 *1133:RESET_B *1163:RESET_B 40.5643 
22 *1163:RESET_B *1164:RESET_B 48.1871 
23 *1164:RESET_B *256:165 10.5125 
24 *256:165 *256:169 22.7679 
25 *256:169 *256:171 4.01857 
26 *256:171 *256:175 16.5536 
27 *256:175 *256:177 7.76786 
28 *256:177 *256:179 5.86214 
29 *256:179 *256:189 25.8336 
30 *256:189 *1143:RESET_B 23.0475 
31 *256:189 *1144:RESET_B 15 
32 *256:179 *256:210 0.849286 
33 *256:210 *1145:RESET_B 1.50179 
34 *256:210 *256:222 41.0614 
35 *256:222 *1151:RESET_B 1.02536 
36 *256:222 *1150:RESET_B 38.3168 
37 *256:177 *1160:RESET_B 1.04607 
38 *256:177 *256:254 26.0614 
39 *256:254 *1153:RESET_B 16.0254 
40 *256:254 *256:266 7.80929 
41 *256:266 *1152:RESET_B 16.0461 
42 *256:266 *256:286 23.1407 
43 *256:286 *256:292 20.9243 
44 *256:292 *256:296 18.48 
45 *256:296 *1169:RESET_B 0.548929 
46 *256:296 *1154:RESET_B 40.4296 
47 *256:292 *256:318 2.25786 
48 *256:318 *1189:RESET_B 22.2396 
49 *256:318 *256:330 5.77929 
50 *256:330 *1147:RESET_B 15 
51 *256:330 *256:337 3.66643 
52 *256:337 *1171:RESET_B 15 
53 *256:337 *256:344 5.42714 
54 *256:344 *1148:RESET_B 23.1718 
55 *256:344 *256:354 2.61 
56 *256:354 *1172:RESET_B 15 
57 *1172:RESET_B *1188:RESET_B 11.4343 
58 *256:354 *256:367 5.42714 
59 *256:367 *1146:RESET_B 17.4546 
60 *256:367 *256:377 6.13143 
61 *256:377 *1138:RESET_B 15 
62 *256:377 *1137:RESET_B 20.7793 
63 *1137:RESET_B *256:393 1.04607 
64 *256:393 *1179:RESET_B 18.7982 
65 *1179:RESET_B *256:405 26.0614 
66 *256:405 *1182:RESET_B 32.9489 
67 *256:405 *1178:RESET_B 16.0461 
68 *256:393 *1139:RESET_B 8.3375 
69 *1139:RESET_B *1170:RESET_B 41.1132 
70 *256:286 *256:461 35.2781 
71 *256:461 *256:471 39.1454 
72 *256:471 *1190:RESET_B 19.5882 
73 *256:471 *1181:RESET_B 35.2896 
74 *256:461 *1167:RESET_B 15.3211 
75 *256:175 *256:510 21.8979 
76 *256:510 *256:512 5.77929 
77 *256:512 *1158:RESET_B 26.7968 
78 *256:512 *1149:RESET_B 15 
79 *256:510 *1159:RESET_B 20.9761 
80 *256:171 *1166:RESET_B 15 
81 *256:169 *1168:RESET_B 16.9057 
82 *256:165 *1165:RESET_B 0.548929 
83 *256:16 *1131:RESET_B 2.35107 
84 *256:12 *1162:RESET_B 16.5018 
85 *256:10 *1161:RESET_B 16.9782 
86 *256:8 *256:589 5.42714 
87 *256:589 *1174:RESET_B 15.5489 
88 *256:589 *256:599 4.01857 
89 *256:599 *1175:RESET_B 22.2396 
90 *256:599 *256:611 5.42714 
91 *256:611 *1176:RESET_B 15 
92 *256:611 *256:618 1.90571 
93 *256:618 *1141:RESET_B 16.0254 
94 *256:618 *256:628 9.30071 
95 *256:628 *1140:RESET_B 16.5018 
96 *256:628 *256:638 2.25786 
97 *256:638 *1177:RESET_B 16.9782 
98 *256:638 *256:654 19.785 
99 *256:654 *256:656 5.38571 
100 *256:656 *1135:RESET_B 0.548929 
101 *256:656 *256:668 20.8829 
102 *256:668 *1173:RESET_B 22.9025 
103 *1173:RESET_B *256:682 17.3718 
104 *256:682 *256:688 7.19821 
105 *256:688 *256:696 18.8425 
106 *256:696 *256:702 27.2525 
107 *256:702 *1186:RESET_B 20.7793 
108 *256:702 *1187:RESET_B 15 
109 *256:696 *256:720 20.3546 
110 *256:720 *1191:RESET_B 27.5321 
111 *256:720 *1142:RESET_B 17.1439 
112 *256:688 *1183:RESET_B 18.8839 
113 *256:682 *256:753 5.60321 
114 *256:753 *1185:RESET_B 19.8368 
115 *256:753 *256:771 29.4586 
116 *256:771 *1184:RESET_B 0.548929 
117 *256:771 *1180:RESET_B 33.0761 
118 *256:668 *1134:RESET_B 23.6896 
119 *256:654 *1136:RESET_B 40.6368 
*END

*D_NET *257 0.00133801
*CONN
*I *1209:A I *D sky130_fd_sc_hd__dlygate4sd3_1
*I *1269:A I *D sky130_fd_sc_hd__buf_2
*I *1176:Q O *D sky130_fd_sc_hd__dfrtp_1
*CAP
1 *1209:A 9.00985e-05
2 *1269:A 0.000202118
3 *1176:Q 0.000261157
4 *257:8 0.000553373
5 *1209:A *270:8 7.0726e-05
6 *1269:A *270:16 8.64709e-05
7 o_bucket[0] *1269:A 7.40663e-05
*RES
1 *1176:Q *257:8 41.0036 
2 *257:8 *1269:A 42.9093 
3 *257:8 *1209:A 39.9057 
*END

*D_NET *258 0.000520818
*CONN
*I *1216:A I *D sky130_fd_sc_hd__dlygate4sd3_1
*I *1270:A I *D sky130_fd_sc_hd__buf_2
*I *1177:Q O *D sky130_fd_sc_hd__dfrtp_1
*CAP
1 *1216:A 0.000132524
2 *1270:A 0
3 *1177:Q 0.000112263
4 *258:8 0.000244786
5 o_bucket[1] *258:8 3.12448e-05
*RES
1 *1177:Q *258:8 40.2579 
2 *258:8 *1270:A 38 
3 *258:8 *1216:A 40.61 
*END

*D_NET *259 0.0019699
*CONN
*I *984:B1 I *D sky130_fd_sc_hd__o211a_1
*I *987:A1 I *D sky130_fd_sc_hd__mux2_1
*I *1260:X O *D sky130_fd_sc_hd__buf_1
*CAP
1 *984:B1 0
2 *987:A1 8.5184e-05
3 *1260:X 0.000209359
4 *259:33 0.000221379
5 *259:14 0.000335514
6 *259:10 0.000238311
7 *987:A1 *987:A0 0.000110209
8 *259:10 *312:8 0.000142151
9 *259:10 *314:14 2.93747e-05
10 *259:10 *327:12 0.000248786
11 *259:33 *987:A0 3.71887e-05
12 *987:S *987:A1 0.000136191
13 *987:S *259:33 0.000176248
*RES
1 *1260:X *259:10 42.9921 
2 *259:10 *259:14 15.8493 
3 *259:14 *987:A1 26.1693 
4 *259:14 *259:33 35.0129 
5 *259:33 *984:B1 23 
*END

*D_NET *260 0.000879692
*CONN
*I *1210:A I *D sky130_fd_sc_hd__dlygate4sd3_1
*I *1271:A I *D sky130_fd_sc_hd__clkbuf_4
*I *1178:Q O *D sky130_fd_sc_hd__dfrtp_1
*CAP
1 *1210:A 0.000179618
2 *1271:A 0
3 *1178:Q 0.000177035
4 *260:12 0.000179618
5 *260:10 0.000177035
6 *22:10 *260:10 0
7 *256:405 *260:10 0.000166387
*RES
1 *1178:Q *260:10 41.3557 
2 *260:10 *260:12 15 
3 *260:12 *1271:A 23 
4 *260:12 *1210:A 26.0036 
*END

*D_NET *261 0.000742223
*CONN
*I *1272:A I *D sky130_fd_sc_hd__buf_2
*I *1234:A I *D sky130_fd_sc_hd__dlygate4sd3_1
*I *1180:Q O *D sky130_fd_sc_hd__dfrtp_1
*CAP
1 *1272:A 0
2 *1234:A 3.73628e-05
3 *1180:Q 0.000146449
4 *261:12 5.46263e-05
5 *261:8 0.000163712
6 *1234:A *314:14 0.000187129
7 *261:12 *314:14 4.17736e-05
8 o_index[0] *1234:A 8.1796e-05
9 o_index[0] *261:12 2.93747e-05
*RES
1 *1180:Q *261:8 40.2579 
2 *261:8 *261:12 15.6214 
3 *261:12 *1234:A 25.0507 
4 *261:12 *1272:A 23 
*END

*D_NET *262 0.00669513
*CONN
*I *1238:A I *D sky130_fd_sc_hd__dlygate4sd3_1
*I *1273:A I *D sky130_fd_sc_hd__clkbuf_4
*I *1181:Q O *D sky130_fd_sc_hd__dfrtp_1
*CAP
1 *1238:A 0.00020398
2 *1273:A 0
3 *1181:Q 0.000383865
4 *262:18 0.00174012
5 *262:12 0.00232796
6 *262:12 *931:A2 5.25571e-05
7 *262:18 *979:A0 0.00015192
8 *262:18 *1058:A1 3.47776e-05
9 *262:18 *325:97 0
10 *262:18 *326:126 0
11 *262:18 *353:8 0.000138727
12 *931:B1 *262:12 0.000226899
13 *931:B2 *262:12 1.43177e-05
14 *1131:CLK *262:18 0
15 *1157:RESET_B *262:18 0
16 *32:10 *262:18 7.03766e-05
17 *93:172 *262:18 0.000368089
18 *98:144 *1238:A 6.5117e-06
19 *99:47 *1238:A 5.3304e-05
20 *99:51 *1238:A 0.000101014
21 *99:51 *262:18 0.000116366
22 *99:59 *262:18 0.000112396
23 *104:10 *262:12 5.5792e-05
24 *126:144 *262:18 0
25 *140:8 *262:18 0
26 *142:10 *262:18 0.000370553
27 *143:8 *262:18 0
28 *242:86 *262:18 0.000165608
29 *255:35 *262:18 0
*RES
1 *1181:Q *262:12 44.5043 
2 *262:12 *262:18 35.7736 
3 *262:18 *1273:A 38 
4 *262:12 *1238:A 41.48 
*END

*D_NET *263 0.000915747
*CONN
*I *1213:A I *D sky130_fd_sc_hd__dlygate4sd3_1
*I *1274:A I *D sky130_fd_sc_hd__clkbuf_4
*I *1182:Q O *D sky130_fd_sc_hd__dfrtp_1
*CAP
1 *1213:A 4.28419e-05
2 *1274:A 0
3 *1182:Q 0.000104442
4 *263:18 9.18658e-05
5 *263:12 0.00025535
6 *263:8 0.000225084
7 *1182:RESET_B *263:18 0.000196165
8 *25:12 *263:18 0
*RES
1 *1182:Q *263:8 39.9057 
2 *263:8 *263:12 17.0507 
3 *263:12 *263:18 32.61 
4 *263:18 *1274:A 23 
5 *263:12 *1213:A 23.6214 
*END

*D_NET *264 0.000258405
*CONN
*I *1275:A I *D sky130_fd_sc_hd__clkbuf_4
*I *1179:Q O *D sky130_fd_sc_hd__dfrtp_1
*CAP
1 *1275:A 0
2 *1179:Q 0.000129202
3 *264:8 0.000129202
4 *26:10 *264:8 0
*RES
1 *1179:Q *264:8 40.2579 
2 *264:8 *1275:A 38 
*END

*D_NET *265 0.00133803
*CONN
*I *961:A2 I *D sky130_fd_sc_hd__a31o_1
*I *1268:X O *D sky130_fd_sc_hd__clkbuf_1
*CAP
1 *961:A2 0.000252134
2 *1268:X 9.67196e-05
3 *265:8 0.000348853
4 *961:A2 *266:16 7.70017e-05
5 *265:8 *266:26 0.000137788
6 *952:D *265:8 0.000126623
7 *1090:B *961:A2 5.50106e-05
8 *1094:A1 *961:A2 5.50049e-05
9 *124:55 *961:A2 2.10502e-05
10 *124:63 *961:A2 7.64059e-06
11 *124:63 *265:8 4.6318e-06
12 *137:63 *961:A2 4.98398e-05
13 *213:14 *961:A2 9.58714e-05
14 *216:8 *961:A2 9.8592e-06
*RES
1 *1268:X *265:8 39.9057 
2 *265:8 *961:A2 43.4271 
*END

*D_NET *266 0.00172795
*CONN
*I *1090:A I *D sky130_fd_sc_hd__nand2_1
*I *1268:A I *D sky130_fd_sc_hd__clkbuf_1
*I *1276:X O *D sky130_fd_sc_hd__clkbuf_1
*CAP
1 *1090:A 0
2 *1268:A 0
3 *1276:X 0.000184711
4 *266:26 0.000155822
5 *266:16 0.000254562
6 *266:10 0.000283451
7 *961:A2 *266:16 7.70017e-05
8 *1090:B *266:16 5.58003e-05
9 *1181:RESET_B *266:10 0.000145163
10 *105:10 *266:26 5.67058e-05
11 *120:22 *266:10 0.000132638
12 *133:8 *266:10 1.7403e-05
13 *137:63 *266:16 0
14 *216:8 *266:16 0.000226904
15 *265:8 *266:26 0.000137788
*RES
1 *1276:X *266:10 41.48 
2 *266:10 *266:16 18.0243 
3 *266:16 *266:26 33.3764 
4 *266:26 *1268:A 23 
5 *266:16 *1090:A 23 
*END

*D_NET *267 0.000197592
*CONN
*I *1002:B1 I *D sky130_fd_sc_hd__a21o_1
*I *1204:X O *D sky130_fd_sc_hd__dlygate4sd3_1
*CAP
1 *1002:B1 5.79187e-05
2 *1204:X 5.79187e-05
3 *1002:B1 *314:22 8.17547e-05
*RES
1 *1204:X *1002:B1 47.5743 
*END

*D_NET *268 0.000793126
*CONN
*I *1047:B1 I *D sky130_fd_sc_hd__a21o_1
*I *1215:X O *D sky130_fd_sc_hd__dlygate4sd3_1
*CAP
1 *1047:B1 5.10281e-05
2 *1215:X 5.10281e-05
3 *1047:A2 *1047:B1 5.79559e-05
4 *250:12 *1047:B1 0.000249496
5 *250:14 *1047:B1 1.71761e-05
6 *255:35 *1047:B1 0.000366442
*RES
1 *1215:X *1047:B1 49.9564 
*END

*D_NET *269 0.00127726
*CONN
*I *1036:B1 I *D sky130_fd_sc_hd__a21o_1
*I *1226:X O *D sky130_fd_sc_hd__dlygate4sd3_1
*CAP
1 *1036:B1 0.000164478
2 *1226:X 0.000164073
3 *269:8 0.000328551
4 *1036:A2 *1036:B1 7.83235e-05
5 *93:30 *1036:B1 1.57571e-05
6 *93:30 *269:8 0
7 *93:62 *269:8 1.14452e-05
8 *251:6 *1036:B1 0.000447504
9 *252:23 *1036:B1 6.71295e-05
*RES
1 *1226:X *269:8 40.2579 
2 *269:8 *1036:B1 43.9036 
*END

*D_NET *270 0.0124129
*CONN
*I *985:B2 I *D sky130_fd_sc_hd__a22o_1
*I *989:A1 I *D sky130_fd_sc_hd__mux2_1
*I *984:A2 I *D sky130_fd_sc_hd__o211a_1
*I *1261:X O *D sky130_fd_sc_hd__buf_1
*CAP
1 *985:B2 0
2 *989:A1 0
3 *984:A2 0
4 *1261:X 0
5 *270:52 0.000432693
6 *270:30 0.000392532
7 *270:18 0.00085072
8 *270:16 0.00191858
9 *270:8 0.00358415
10 *270:6 0.00255645
11 *270:8 *348:10 0
12 *270:18 *989:A0 0.000180218
13 *984:A1 *270:30 5.82853e-05
14 *984:C1 *270:30 3.28357e-06
15 *1087:A *270:18 3.22879e-05
16 *1136:RESET_B *270:52 0.000408579
17 *1173:RESET_B *270:30 0
18 *1177:CLK *270:18 6.23604e-05
19 *1177:D *270:18 4.53327e-05
20 *1177:RESET_B *270:16 0.000136478
21 *1177:RESET_B *270:18 5.3304e-05
22 *1209:A *270:8 7.0726e-05
23 *1257:A *270:8 0
24 *1259:A *270:8 9.4987e-05
25 *1269:A *270:16 8.64709e-05
26 *99:35 *270:16 0.00057305
27 *99:47 *270:8 0
28 *149:6 *270:52 5.3304e-05
29 *150:23 *270:52 0.000170807
30 *154:21 *270:30 0.000334169
31 *154:27 *270:30 8.62876e-05
32 *256:638 *270:52 3.47781e-05
33 *256:654 *270:52 0.000193117
*RES
1 *1261:X *270:6 38 
2 *270:6 *270:8 50.9054 
3 *270:8 *270:16 36.2425 
4 *270:16 *270:18 6.815 
5 *270:18 *270:30 37.8714 
6 *270:30 *984:A2 23 
7 *270:18 *989:A1 23 
8 *270:16 *270:52 41.0407 
9 *270:52 *985:B2 23 
*END

*D_NET *271 0.000510886
*CONN
*I *991:B1 I *D sky130_fd_sc_hd__a21o_1
*I *1237:X O *D sky130_fd_sc_hd__dlygate4sd3_1
*CAP
1 *991:B1 7.93829e-05
2 *1237:X 7.93829e-05
3 *991:B1 *991:A2 0.000128137
4 *991:B1 *281:6 4.79228e-05
5 *991:B1 *314:12 0.00017606
*RES
1 *1237:X *991:B1 49.48 
*END

*D_NET *272 0.00112054
*CONN
*I *1019:B1 I *D sky130_fd_sc_hd__a21o_1
*I *1246:X O *D sky130_fd_sc_hd__dlygate4sd3_1
*CAP
1 *1019:B1 0
2 *1246:X 0.00045107
3 *272:12 0.00045107
4 *1019:A2 *272:12 5.70275e-06
5 *93:30 *272:12 2.73254e-05
6 *194:10 *272:12 0.000185371
*RES
1 *1246:X *272:12 30.9543 
2 *272:12 *1019:B1 23 
*END

*D_NET *273 0.000716778
*CONN
*I *1112:B1 I *D sky130_fd_sc_hd__o21ai_1
*I *1247:X O *D sky130_fd_sc_hd__dlygate4sd3_1
*CAP
1 *1112:B1 0.000137414
2 *1247:X 6.72844e-05
3 *273:8 0.000204699
4 *134:12 *1112:B1 0.000281712
5 *256:702 *273:8 2.56684e-05
*RES
1 *1247:X *273:8 39.2014 
2 *273:8 *1112:B1 41.8529 
*END

*D_NET *274 0.000534383
*CONN
*I *1114:B1 I *D sky130_fd_sc_hd__o21ai_1
*I *1248:X O *D sky130_fd_sc_hd__dlygate4sd3_1
*CAP
1 *1114:B1 8.70421e-05
2 *1248:X 4.55749e-05
3 *274:8 0.000132617
4 *1114:B1 *936:B_N 0.000147656
5 *127:28 *274:8 8.82124e-05
6 *230:10 *1114:B1 7.61229e-06
7 *230:10 *274:8 2.56684e-05
*RES
1 *1248:X *274:8 39.2014 
2 *274:8 *1114:B1 40.4236 
*END

*D_NET *275 0.00157175
*CONN
*I *1068:A1 I *D sky130_fd_sc_hd__mux2_1
*I *1039:A0 I *D sky130_fd_sc_hd__mux2_1
*I *1249:X O *D sky130_fd_sc_hd__dlygate4sd3_1
*CAP
1 *1068:A1 0
2 *1039:A0 0.000164052
3 *1249:X 6.64099e-05
4 *275:14 0.000364116
5 *275:8 0.000266474
6 *1039:A0 *325:50 7.64059e-06
7 *1039:A0 *325:54 0.000223427
8 *1039:A0 *325:64 5.82853e-05
9 *275:8 *276:8 4.11274e-05
10 *275:14 *1068:A0 0.000322582
11 *1068:S *1039:A0 3.26241e-05
12 *1068:S *275:14 2.50118e-05
*RES
1 *1249:X *275:8 39.2014 
2 *275:8 *275:14 19.4536 
3 *275:14 *1039:A0 26.9564 
4 *275:14 *1068:A1 23 
*END

*D_NET *276 0.00050287
*CONN
*I *1069:A I *D sky130_fd_sc_hd__clkbuf_1
*I *1250:X O *D sky130_fd_sc_hd__dlygate4sd3_1
*CAP
1 *1069:A 9.26339e-05
2 *1250:X 6.64099e-05
3 *276:8 0.000159044
4 *1069:A *337:6 0.000143655
5 *275:8 *276:8 4.11274e-05
*RES
1 *1250:X *276:8 39.2014 
2 *276:8 *1069:A 40.4236 
*END

*D_NET *277 0.00170266
*CONN
*I *1070:A1 I *D sky130_fd_sc_hd__mux2_1
*I *1041:A0 I *D sky130_fd_sc_hd__mux2_1
*I *1205:X O *D sky130_fd_sc_hd__dlygate4sd3_1
*CAP
1 *1070:A1 0
2 *1041:A0 0.000321153
3 *1205:X 0
4 *277:21 0.000252926
5 *277:4 0.000574079
6 *1041:A0 *1041:A1 0.000218664
7 *277:21 *325:64 2.54046e-05
8 *1070:S *277:21 3.17516e-05
9 *1154:RESET_B *277:21 0.000139357
10 *241:72 *1041:A0 3.68359e-05
11 *256:286 *1041:A0 0.000102488
12 *256:292 *1041:A0 0
13 *256:292 *277:21 0
*RES
1 *1205:X *277:4 23 
2 *277:4 *1041:A0 29.3593 
3 *277:4 *277:21 33.7286 
4 *277:21 *1070:A1 23 
*END

*D_NET *278 0.00232993
*CONN
*I *1066:A1 I *D sky130_fd_sc_hd__mux2_1
*I *1037:A0 I *D sky130_fd_sc_hd__mux2_1
*I *1206:X O *D sky130_fd_sc_hd__dlygate4sd3_1
*CAP
1 *1066:A1 0.000286297
2 *1037:A0 7.42667e-05
3 *1206:X 0.00051967
4 *278:8 0.000880234
5 *278:8 *1206:A 2.10502e-05
6 *1066:S *1066:A1 5.82853e-05
7 *1067:A *278:8 5.76359e-05
8 *241:72 *1066:A1 0.000146999
9 *256:286 *1066:A1 6.81213e-05
10 *256:461 *1066:A1 0.000217372
*RES
1 *1206:X *278:8 44.815 
2 *278:8 *1037:A0 39.2014 
3 *278:8 *1066:A1 45.6436 
*END

*D_NET *279 0.00123108
*CONN
*I *1076:A1 I *D sky130_fd_sc_hd__mux2_1
*I *1024:A0 I *D sky130_fd_sc_hd__mux2_1
*I *1207:X O *D sky130_fd_sc_hd__dlygate4sd3_1
*CAP
1 *1076:A1 0
2 *1024:A0 0
3 *1207:X 6.2673e-05
4 *279:14 0.000236969
5 *279:6 0.000299642
6 *279:14 *303:30 0.000125003
7 *279:14 *332:12 5.67058e-05
8 *279:14 *363:12 0.000169674
9 *1076:S *279:6 9.75779e-05
10 *1088:A1 *279:6 0.000182832
*RES
1 *1207:X *279:6 25.0507 
2 *279:6 *279:14 35.6964 
3 *279:14 *1024:A0 23 
4 *279:6 *1076:A1 23 
*END

*D_NET *280 0.00100952
*CONN
*I *1077:A I *D sky130_fd_sc_hd__clkbuf_1
*I *1208:X O *D sky130_fd_sc_hd__dlygate4sd3_1
*CAP
1 *1077:A 2.51959e-05
2 *1208:X 0.000387631
3 *280:10 0.000412827
4 *280:10 *319:10 0
5 *1172:CLK *1077:A 5.50049e-05
6 *1172:CLK *280:10 0
7 *1178:CLK *280:10 4.72141e-05
8 *30:34 *280:10 0
9 *30:47 *280:10 8.16459e-05
*RES
1 *1208:X *280:10 44.6493 
2 *280:10 *1077:A 38.6214 
*END

*D_NET *281 0.00355587
*CONN
*I *985:A2 I *D sky130_fd_sc_hd__a22o_1
*I *986:A2 I *D sky130_fd_sc_hd__o221a_2
*I *991:A2 I *D sky130_fd_sc_hd__a21o_1
*I *1262:X O *D sky130_fd_sc_hd__buf_1
*CAP
1 *985:A2 3.19275e-05
2 *986:A2 0.000334406
3 *991:A2 0.000290317
4 *1262:X 0.000360726
5 *281:29 0.000802138
6 *281:6 0.00108685
7 *991:A2 *314:12 1.60762e-05
8 *281:6 *314:12 0.000101253
9 *281:29 *981:A 0
10 *281:29 *1237:A 0
11 *986:A1 *985:A2 5.56279e-05
12 *986:A1 *986:A2 3.27678e-05
13 *986:B2 *986:A2 0.000118635
14 *987:S *986:A2 3.28357e-06
15 *991:B1 *991:A2 0.000128137
16 *991:B1 *281:6 4.79228e-05
17 *1136:RESET_B *281:29 5.05651e-05
18 *36:14 *281:29 0
19 *93:265 *991:A2 5.88116e-05
20 *93:277 *281:29 0
21 *150:23 *281:29 3.64246e-05
*RES
1 *1262:X *281:6 28.3857 
2 *281:6 *991:A2 28.0957 
3 *281:6 *281:29 37.6021 
4 *281:29 *986:A2 28.945 
5 *281:29 *985:A2 24.1186 
*END

*D_NET *282 0.000706476
*CONN
*I *1084:A0 I *D sky130_fd_sc_hd__mux2_1
*I *1209:X O *D sky130_fd_sc_hd__dlygate4sd3_1
*CAP
1 *1084:A0 0
2 *1209:X 0.000256136
3 *282:10 0.000256136
4 *940:B *282:10 5.43448e-05
5 *99:35 *282:10 0.00013986
*RES
1 *1209:X *282:10 43.1164 
2 *282:10 *1084:A0 38 
*END

*D_NET *283 0.000657928
*CONN
*I *1088:A0 I *D sky130_fd_sc_hd__mux2_1
*I *1210:X O *D sky130_fd_sc_hd__dlygate4sd3_1
*CAP
1 *1088:A0 0
2 *1210:X 0.000224998
3 *283:10 0.000224998
4 *283:10 *319:10 9.38488e-05
5 *30:47 *283:10 0
6 *78:12 *283:10 0.000114083
*RES
1 *1210:X *283:10 42.64 
2 *283:10 *1088:A0 38 
*END

*D_NET *284 0.00176127
*CONN
*I *1072:A1 I *D sky130_fd_sc_hd__mux2_1
*I *1020:A0 I *D sky130_fd_sc_hd__mux2_1
*I *1211:X O *D sky130_fd_sc_hd__dlygate4sd3_1
*CAP
1 *1072:A1 0
2 *1020:A0 0.000385793
3 *1211:X 0
4 *284:19 0.000140219
5 *284:4 0.000526013
6 *1088:A1 *1020:A0 0.000141954
7 *93:219 *284:19 3.76854e-05
8 *102:30 *1020:A0 0.000441978
9 *102:30 *284:19 8.76309e-05
*RES
1 *1211:X *284:4 23 
2 *284:4 *1020:A0 29.3386 
3 *284:4 *284:19 32.2993 
4 *284:19 *1072:A1 23 
*END

*D_NET *285 0.000921597
*CONN
*I *1070:A0 I *D sky130_fd_sc_hd__mux2_1
*I *1212:X O *D sky130_fd_sc_hd__dlygate4sd3_1
*CAP
1 *1070:A0 0.000224943
2 *1212:X 5.28878e-05
3 *285:8 0.000277831
4 *1070:A0 *303:12 1.34406e-05
5 *1070:S *1070:A0 0.000182826
6 *1154:RESET_B *1070:A0 0.000113868
7 *1154:RESET_B *285:8 2.79004e-05
8 *126:69 *285:8 2.79004e-05
*RES
1 *1212:X *285:8 39.2014 
2 *285:8 *1070:A0 42.9714 
*END

*D_NET *286 0.000497332
*CONN
*I *1097:A0 I *D sky130_fd_sc_hd__mux2_1
*I *1213:X O *D sky130_fd_sc_hd__dlygate4sd3_1
*CAP
1 *1097:A0 0
2 *1213:X 0.000177087
3 *286:8 0.000177087
4 *286:8 *319:10 0.000143158
*RES
1 *1213:X *286:8 42.0186 
2 *286:8 *1097:A0 38 
*END

*D_NET *287 0.00135903
*CONN
*I *1062:A1 I *D sky130_fd_sc_hd__mux2_1
*I *1050:A0 I *D sky130_fd_sc_hd__mux2_1
*I *1214:X O *D sky130_fd_sc_hd__dlygate4sd3_1
*CAP
1 *1062:A1 0
2 *1050:A0 0.000179464
3 *1214:X 0
4 *287:21 0.000309628
5 *287:4 0.000489092
6 *1050:A0 *1050:A1 0.000102092
7 *287:21 *1050:A1 2.49002e-05
8 *287:21 *1062:A0 5.56279e-05
9 *287:21 *343:8 3.88725e-05
10 *93:112 *287:21 0.000130018
11 *126:22 *287:21 2.93335e-05
*RES
1 *1214:X *287:4 23 
2 *287:4 *1050:A0 25.5271 
3 *287:4 *287:21 36.67 
4 *287:21 *1062:A1 23 
*END

*D_NET *288 0.000614431
*CONN
*I *1086:A0 I *D sky130_fd_sc_hd__mux2_1
*I *1216:X O *D sky130_fd_sc_hd__dlygate4sd3_1
*CAP
1 *1086:A0 0.000161866
2 *1216:X 7.58435e-05
3 *288:8 0.000237709
4 *99:22 *1086:A0 3.22051e-05
5 *99:35 *1086:A0 0.000106808
*RES
1 *1216:X *288:8 39.2014 
2 *288:8 *1086:A0 40.5271 
*END

*D_NET *289 0.00193273
*CONN
*I *1056:A1 I *D sky130_fd_sc_hd__mux2_1
*I *977:A0 I *D sky130_fd_sc_hd__mux2_1
*I *1217:X O *D sky130_fd_sc_hd__dlygate4sd3_1
*CAP
1 *1056:A1 0.000143574
2 *977:A0 0.000280223
3 *1217:X 0
4 *289:6 0.000423797
5 *977:A0 *977:A1 3.22879e-05
6 *977:A0 *324:116 8.89076e-05
7 *977:A0 *325:112 8.07434e-05
8 *1056:A1 *290:6 0.000230718
9 *1056:A1 *324:116 4.41504e-05
10 *1056:A1 *325:112 4.06418e-05
11 *1054:S *1056:A1 0.000186032
12 *31:8 *977:A0 0.000197479
13 *126:161 *1056:A1 5.82853e-05
14 *256:36 *977:A0 0.000125894
*RES
1 *1217:X *289:6 38 
2 *289:6 *977:A0 45.4571 
3 *289:6 *1056:A1 42.785 
*END

*D_NET *290 0.00126066
*CONN
*I *1056:A0 I *D sky130_fd_sc_hd__mux2_1
*I *1218:X O *D sky130_fd_sc_hd__dlygate4sd3_1
*CAP
1 *1056:A0 0
2 *1218:X 0.000240889
3 *290:6 0.000240889
4 *290:6 *300:16 0.000144908
5 *290:6 *370:46 0.00023387
6 *1054:S *290:6 8.60859e-05
7 *1056:A1 *290:6 0.000230718
8 *126:161 *290:6 2.50118e-05
9 *195:10 *290:6 5.82853e-05
*RES
1 *1218:X *290:6 29.815 
2 *290:6 *1056:A0 23 
*END

*D_NET *291 0.00205652
*CONN
*I *1064:A1 I *D sky130_fd_sc_hd__mux2_1
*I *1052:A0 I *D sky130_fd_sc_hd__mux2_1
*I *1219:X O *D sky130_fd_sc_hd__dlygate4sd3_1
*CAP
1 *1064:A1 0
2 *1052:A0 0.000152493
3 *1219:X 0.000128933
4 *291:21 0.000341534
5 *291:6 0.000622961
6 *1052:A0 *1219:A 3.25507e-05
7 *1052:A0 *326:36 0.000464226
8 *291:6 *326:36 9.02884e-05
9 *291:21 *344:8 4.11274e-05
10 *126:32 *291:21 1.14452e-05
11 *200:8 *291:21 0
12 *256:171 *291:21 0.000119725
13 *256:175 *291:21 5.12397e-05
*RES
1 *1219:X *291:6 25.0507 
2 *291:6 *1052:A0 28.1579 
3 *291:6 *291:21 37.54 
4 *291:21 *1064:A1 23 
*END

*D_NET *292 0.00121775
*CONN
*I *995:B1 I *D sky130_fd_sc_hd__o211a_1
*I *998:A1 I *D sky130_fd_sc_hd__mux2_1
*I *1263:X O *D sky130_fd_sc_hd__clkbuf_1
*CAP
1 *995:B1 7.19957e-05
2 *998:A1 4.00663e-05
3 *1263:X 0.00024497
4 *292:10 0.000112062
5 *292:8 0.00024497
6 *995:B1 *995:A2 3.86731e-05
7 *995:B1 *998:A0 1.12268e-05
8 *995:B1 *303:47 1.24376e-05
9 *998:A1 *998:A0 0.000145163
10 *292:8 *311:8 8.6059e-05
11 *995:C1 *995:B1 0.000101866
12 *998:S *995:B1 4.68096e-05
13 *998:S *998:A1 1.61385e-05
14 *162:6 *995:B1 4.53082e-05
15 *245:40 *292:8 0
*RES
1 *1263:X *292:8 42.3707 
2 *292:8 *292:10 15 
3 *292:10 *998:A1 24.5743 
4 *292:10 *995:B1 25.9207 
*END

*D_NET *293 0.00227613
*CONN
*I *1058:A1 I *D sky130_fd_sc_hd__mux2_1
*I *979:A0 I *D sky130_fd_sc_hd__mux2_1
*I *1220:X O *D sky130_fd_sc_hd__dlygate4sd3_1
*CAP
1 *1058:A1 0.000366065
2 *979:A0 0.000281832
3 *1220:X 0
4 *293:6 0.000647897
5 *979:A0 *325:97 0
6 *979:A0 *326:115 5.50106e-05
7 *979:A0 *326:126 4.34745e-05
8 *1058:A1 *1058:A0 0.000181925
9 *1058:A1 *1224:A 0.0001164
10 *1058:A1 *325:97 0
11 *979:S *979:A0 0.0002263
12 *242:86 *979:A0 0.000170529
13 *262:18 *979:A0 0.00015192
14 *262:18 *1058:A1 3.47776e-05
*RES
1 *1220:X *293:6 38 
2 *293:6 *979:A0 45.975 
3 *293:6 *1058:A1 43.6343 
*END

*D_NET *294 0.00195239
*CONN
*I *1082:A1 I *D sky130_fd_sc_hd__mux2_1
*I *1007:A0 I *D sky130_fd_sc_hd__mux2_1
*I *1221:X O *D sky130_fd_sc_hd__dlygate4sd3_1
*CAP
1 *1082:A1 0
2 *1007:A0 0.000169571
3 *1221:X 0.000146643
4 *294:14 0.000220986
5 *294:10 0.000198058
6 *1007:A0 *1007:A1 5.82853e-05
7 *294:10 *324:120 2.22077e-05
8 *1007:S *1007:A0 0.00027408
9 *1176:CLK *294:10 2.64616e-05
10 *41:10 *294:10 8.36198e-05
11 *41:10 *294:14 1.59094e-05
12 *113:8 *1007:A0 0.000580569
13 *113:8 *294:14 8.42292e-05
14 *126:208 *294:10 3.67392e-05
15 *166:16 *294:10 3.50301e-05
*RES
1 *1221:X *294:10 40.8793 
2 *294:10 *294:14 16.0979 
3 *294:14 *1007:A0 29.3386 
4 *294:14 *1082:A1 23 
*END

*D_NET *295 0.00221865
*CONN
*I *1062:A0 I *D sky130_fd_sc_hd__mux2_1
*I *1222:X O *D sky130_fd_sc_hd__dlygate4sd3_1
*CAP
1 *1062:A0 0.000183304
2 *1222:X 0.000449394
3 *295:10 0.000632698
4 *295:10 *1222:A 0.000115
5 *295:10 *325:50 0.000215244
6 *295:10 *368:8 8.62783e-05
7 *93:112 *295:10 0.000195034
8 *126:14 *1062:A0 3.32626e-05
9 *126:22 *1062:A0 3.06866e-05
10 *126:113 *295:10 0.000222123
11 *253:58 *295:10 0
12 *287:21 *1062:A0 5.56279e-05
*RES
1 *1222:X *295:10 47.8393 
2 *295:10 *1062:A0 40.5271 
*END

*D_NET *296 0.00266352
*CONN
*I *1074:A1 I *D sky130_fd_sc_hd__mux2_1
*I *1022:A0 I *D sky130_fd_sc_hd__mux2_1
*I *1223:X O *D sky130_fd_sc_hd__dlygate4sd3_1
*CAP
1 *1074:A1 0.000112346
2 *1022:A0 0.000450203
3 *1223:X 0.000325237
4 *296:10 0.000887786
5 *296:10 *1223:A 3.26241e-05
6 *239:32 *1022:A0 0.000237413
7 *245:8 *1074:A1 4.61458e-05
8 *256:337 *296:10 0.000192032
9 *256:344 *1074:A1 0.000266345
10 *256:344 *296:10 0.000113389
*RES
1 *1223:X *296:10 44.0693 
2 *296:10 *1022:A0 43.8621 
3 *296:10 *1074:A1 41.6664 
*END

*D_NET *297 0.000540012
*CONN
*I *1058:A0 I *D sky130_fd_sc_hd__mux2_1
*I *1224:X O *D sky130_fd_sc_hd__dlygate4sd3_1
*CAP
1 *1058:A0 6.63442e-05
2 *1224:X 6.63442e-05
3 *1058:A0 *1224:A 0.000225399
4 *1058:A1 *1058:A0 0.000181925
*RES
1 *1224:X *1058:A0 48.5271 
*END

*D_NET *298 0.00175823
*CONN
*I *1064:A0 I *D sky130_fd_sc_hd__mux2_1
*I *1225:X O *D sky130_fd_sc_hd__dlygate4sd3_1
*CAP
1 *1064:A0 0.000478808
2 *1225:X 6.00171e-05
3 *298:8 0.000538825
4 *298:8 *369:8 8.62876e-05
5 *93:100 *1064:A0 6.82416e-05
6 *256:169 *1064:A0 0.000526048
*RES
1 *1225:X *298:8 39.2014 
2 *298:8 *1064:A0 45.2914 
*END

*D_NET *299 0.00188584
*CONN
*I *1005:A0 I *D sky130_fd_sc_hd__mux2_1
*I *1080:A1 I *D sky130_fd_sc_hd__mux2_1
*I *1227:X O *D sky130_fd_sc_hd__dlygate4sd3_1
*CAP
1 *1005:A0 0.000258285
2 *1080:A1 0
3 *1227:X 0
4 *299:12 0.000522277
5 *299:4 0.000780561
6 *299:12 *324:120 0
7 *1175:RESET_B *299:12 5.82853e-05
8 *76:10 *299:12 0
9 *166:16 *299:12 0.000206098
10 *208:10 *299:12 6.03323e-05
11 *256:628 *299:12 0
*RES
1 *1227:X *299:4 23 
2 *299:4 *299:12 40.9786 
3 *299:12 *1080:A1 23 
4 *299:4 *1005:A0 27.4536 
*END

*D_NET *300 0.00201806
*CONN
*I *975:A0 I *D sky130_fd_sc_hd__mux2_1
*I *1054:A1 I *D sky130_fd_sc_hd__mux2_1
*I *1228:X O *D sky130_fd_sc_hd__dlygate4sd3_1
*CAP
1 *975:A0 0
2 *1054:A1 0
3 *1228:X 0.000155906
4 *300:16 0.000544042
5 *300:6 0.000699948
6 *300:6 *975:A1 4.44329e-05
7 *300:16 *975:A1 5.79559e-05
8 *300:16 *324:116 1.3523e-05
9 *300:16 *349:10 0.000141038
10 *975:S *300:6 0.000102389
11 *975:S *300:16 5.56356e-05
12 *1054:S *300:16 5.82853e-05
13 *290:6 *300:16 0.000144908
*RES
1 *1228:X *300:6 26.48 
2 *300:6 *300:16 41.1443 
3 *300:16 *1054:A1 23 
4 *300:6 *975:A0 23 
*END

*D_NET *301 0.00289339
*CONN
*I *1060:A1 I *D sky130_fd_sc_hd__mux2_1
*I *1048:A0 I *D sky130_fd_sc_hd__mux2_1
*I *1229:X O *D sky130_fd_sc_hd__dlygate4sd3_1
*CAP
1 *1060:A1 0
2 *1048:A0 0
3 *1229:X 0
4 *301:29 0.000496026
5 *301:16 0.000463124
6 *301:4 0.00095915
7 *301:16 *920:C 6.1038e-05
8 *301:16 *1048:A1 0.000112591
9 *301:16 *324:34 8.82976e-05
10 *301:16 *326:26 9.98704e-05
11 *301:16 *342:8 0
12 *301:29 *1229:A 6.17437e-06
13 *301:29 *324:26 4.43801e-05
14 *1127:A *301:16 1.79959e-05
15 *91:16 *301:16 9.67842e-05
16 *93:133 *301:29 6.45006e-05
17 *126:133 *301:29 8.60837e-05
18 *237:8 *301:16 5.71002e-06
19 *237:8 *301:29 0.000238921
20 *239:72 *301:29 0
21 *253:66 *301:29 5.27453e-05
*RES
1 *1229:X *301:4 23 
2 *301:4 *301:16 39.57 
3 *301:16 *1048:A0 23 
4 *301:4 *301:29 39.5907 
5 *301:29 *1060:A1 23 
*END

*D_NET *302 0.00188715
*CONN
*I *1078:A1 I *D sky130_fd_sc_hd__mux2_1
*I *1003:A0 I *D sky130_fd_sc_hd__mux2_1
*I *1230:X O *D sky130_fd_sc_hd__dlygate4sd3_1
*CAP
1 *1078:A1 0
2 *1003:A0 0
3 *1230:X 0.000191967
4 *302:23 0.000508607
5 *302:6 0.000700574
6 *302:23 *358:12 0
7 *1003:S *302:6 2.4754e-05
8 *1003:S *302:23 4.00259e-06
9 *1004:A *302:23 0.000184527
10 *40:10 *302:23 6.9805e-05
11 *126:228 *302:23 0
12 *126:242 *302:23 1.14452e-05
13 *154:33 *302:6 4.95081e-05
14 *154:33 *302:23 0.00014196
*RES
1 *1230:X *302:6 26.9564 
2 *302:6 *1003:A0 23 
3 *302:6 *302:23 41.02 
4 *302:23 *1078:A1 23 
*END

*D_NET *303 0.0101437
*CONN
*I *996:B2 I *D sky130_fd_sc_hd__a22o_1
*I *995:A2 I *D sky130_fd_sc_hd__o211a_1
*I *1000:A1 I *D sky130_fd_sc_hd__mux2_1
*I *1264:X O *D sky130_fd_sc_hd__buf_1
*CAP
1 *996:B2 0
2 *995:A2 2.2227e-05
3 *1000:A1 0
4 *1264:X 0.000839805
5 *303:68 0.000575439
6 *303:47 0.000889077
7 *303:30 0.00112864
8 *303:24 0.00151945
9 *303:12 0.00152203
10 *303:24 *326:80 0.000877748
11 *303:30 *1000:A0 1.358e-05
12 *303:30 *325:64 4.89661e-05
13 *303:30 *326:80 0
14 *303:47 *1000:A0 9.98623e-05
15 *303:68 *994:A 4.63038e-05
16 *303:68 *1239:A 0.000130863
17 *303:68 *311:8 0
18 *303:68 *334:12 2.81425e-05
19 *995:A1 *995:A2 3.86731e-05
20 *995:A1 *303:68 0.000100477
21 *995:B1 *995:A2 3.86731e-05
22 *995:B1 *303:47 1.24376e-05
23 *995:C1 *303:47 1.21972e-05
24 *995:C1 *303:68 1.358e-05
25 *996:A1 *303:68 0.000185434
26 *1022:S *303:30 6.11867e-05
27 *1070:A0 *303:12 1.34406e-05
28 *1137:RESET_B *303:47 0.000181797
29 *1137:RESET_B *303:68 6.48595e-05
30 *1154:CLK *303:12 0.000272458
31 *1154:RESET_B *303:12 0.000142029
32 *159:8 *303:68 2.14404e-05
33 *162:6 *303:47 5.3304e-05
34 *162:6 *303:68 0.000132734
35 *162:23 *303:47 0.000166531
36 *162:25 *303:30 0.000121018
37 *162:27 *303:30 0.000143436
38 *203:10 *303:12 0.000146822
39 *206:10 *303:30 4.58924e-05
40 *239:32 *303:30 3.76387e-05
41 *244:44 *303:24 7.74734e-05
42 *245:25 *303:30 0
43 *256:377 *303:47 0.000193034
44 *279:14 *303:30 0.000125003
*RES
1 *1264:X *303:12 37.6243 
2 *303:12 *303:24 43.6105 
3 *303:24 *303:30 34.2539 
4 *303:30 *1000:A1 23 
5 *303:30 *303:47 38.2443 
6 *303:47 *995:A2 23.8493 
7 *303:47 *303:68 43.2571 
8 *303:68 *996:B2 23 
*END

*D_NET *304 0.000429864
*CONN
*I *1078:A0 I *D sky130_fd_sc_hd__mux2_1
*I *1231:X O *D sky130_fd_sc_hd__dlygate4sd3_1
*CAP
1 *1078:A0 0.000108983
2 *1231:X 0.000108983
3 *1078:A0 *358:27 5.67058e-05
4 *126:228 *1078:A0 0.00010018
5 *126:242 *1078:A0 5.50106e-05
*RES
1 *1231:X *1078:A0 48.5271 
*END

*D_NET *305 0.000542401
*CONN
*I *1080:A0 I *D sky130_fd_sc_hd__mux2_1
*I *1232:X O *D sky130_fd_sc_hd__dlygate4sd3_1
*CAP
1 *1080:A0 0.000132098
2 *1232:X 0.000132098
3 *1175:RESET_B *1080:A0 0.000278204
*RES
1 *1232:X *1080:A0 49.0036 
*END

*D_NET *306 0.00057367
*CONN
*I *1125:B I *D sky130_fd_sc_hd__xor2_1
*I *1233:X O *D sky130_fd_sc_hd__dlygate4sd3_1
*CAP
1 *1125:B 0.000124023
2 *1233:X 9.36555e-05
3 *306:8 0.000217679
4 *306:8 *326:111 3.84404e-05
5 *126:144 *1125:B 9.98726e-05
*RES
1 *1233:X *306:8 39.9057 
2 *306:8 *1125:B 40.5271 
*END

*D_NET *307 0.00167536
*CONN
*I *1092:A0 I *D sky130_fd_sc_hd__mux2_1
*I *1234:X O *D sky130_fd_sc_hd__dlygate4sd3_1
*CAP
1 *1092:A0 0
2 *1234:X 0.000459657
3 *307:10 0.000459657
4 *307:10 *314:14 1.72202e-05
5 *307:10 *314:22 9.5877e-05
6 *39:8 *307:10 2.5415e-05
7 *93:232 *307:10 0.000169556
8 *93:249 *307:10 0.000447976
9 *253:22 *307:10 0
*RES
1 *1234:X *307:10 46.5964 
2 *307:10 *1092:A0 38 
*END

*D_NET *308 0.0016622
*CONN
*I *1015:A0 I *D sky130_fd_sc_hd__mux2_1
*I *1235:X O *D sky130_fd_sc_hd__dlygate4sd3_1
*CAP
1 *1015:A0 0.000349984
2 *1235:X 0.00013742
3 *308:10 0.000487404
4 *308:10 *1235:A 0.000144501
5 *308:10 *339:16 5.0518e-05
6 *1153:CLK *1015:A0 0.000317712
7 *173:23 *1015:A0 1.21972e-05
8 *175:8 *1015:A0 1.79651e-05
9 *188:10 *308:10 0.000144501
*RES
1 *1235:X *308:10 41.48 
2 *308:10 *1015:A0 42.9093 
*END

*D_NET *309 0.000928299
*CONN
*I *1043:A0 I *D sky130_fd_sc_hd__mux2_1
*I *1236:X O *D sky130_fd_sc_hd__dlygate4sd3_1
*CAP
1 *1043:A0 3.72953e-05
2 *1236:X 0.000314339
3 *309:10 0.000351634
4 *309:10 *326:111 4.11274e-05
5 *309:10 *351:6 2.64616e-05
6 *1155:RESET_B *309:10 1.37872e-05
7 *1157:RESET_B *309:10 8.57485e-05
8 *145:26 *1043:A0 1.92324e-05
9 *253:72 *1043:A0 3.86731e-05
*RES
1 *1236:X *309:10 42.205 
2 *309:10 *1043:A0 39.2014 
*END

*D_NET *310 0.000336184
*CONN
*I *1095:A0 I *D sky130_fd_sc_hd__mux2_1
*I *1238:X O *D sky130_fd_sc_hd__dlygate4sd3_1
*CAP
1 *1095:A0 0.000124175
2 *1238:X 0.000124175
3 *30:98 *1095:A0 5.56279e-05
4 *216:8 *1095:A0 3.22051e-05
*RES
1 *1238:X *1095:A0 48.5271 
*END

*D_NET *311 0.00146015
*CONN
*I *998:A0 I *D sky130_fd_sc_hd__mux2_1
*I *1239:X O *D sky130_fd_sc_hd__dlygate4sd3_1
*CAP
1 *998:A0 0.000223267
2 *1239:X 0.000266288
3 *311:8 0.000489555
4 *995:B1 *998:A0 1.12268e-05
5 *995:C1 *998:A0 0.000102971
6 *998:A1 *998:A0 0.000145163
7 *1137:RESET_B *311:8 0.000135616
8 *292:8 *311:8 8.6059e-05
9 *303:68 *311:8 0
*RES
1 *1239:X *311:8 42.0186 
2 *311:8 *998:A0 41.48 
*END

*D_NET *312 0.00122232
*CONN
*I *987:A0 I *D sky130_fd_sc_hd__mux2_1
*I *1240:X O *D sky130_fd_sc_hd__dlygate4sd3_1
*CAP
1 *987:A0 0.000277784
2 *1240:X 0.000188599
3 *312:8 0.000466383
4 *312:8 *327:25 0
5 *987:A1 *987:A0 0.000110209
6 *93:277 *312:8 0
7 *259:10 *312:8 0.000142151
8 *259:33 *987:A0 3.71887e-05
*RES
1 *1240:X *312:8 42.0186 
2 *312:8 *987:A0 41.9564 
*END

*D_NET *313 0.000771764
*CONN
*I *1032:A0 I *D sky130_fd_sc_hd__mux2_1
*I *1241:X O *D sky130_fd_sc_hd__dlygate4sd3_1
*CAP
1 *1032:A0 5.3075e-05
2 *1241:X 0.000157719
3 *313:10 0.000210794
4 *1158:CLK *1032:A0 0.000139346
5 *184:20 *1032:A0 5.25848e-05
6 *184:32 *313:10 3.70094e-05
7 *250:14 *313:10 5.79559e-05
8 *250:29 *313:10 6.32792e-05
*RES
1 *1241:X *313:10 40.8793 
2 *313:10 *1032:A0 39.5743 
*END

*D_NET *314 0.00956577
*CONN
*I *1002:A2 I *D sky130_fd_sc_hd__a21o_1
*I *996:A2 I *D sky130_fd_sc_hd__a22o_1
*I *997:A2 I *D sky130_fd_sc_hd__o221a_2
*I *1265:X O *D sky130_fd_sc_hd__buf_1
*CAP
1 *1002:A2 2.34823e-05
2 *996:A2 0
3 *997:A2 0
4 *1265:X 0.000848413
5 *314:28 0.000222615
6 *314:22 0.000758738
7 *314:14 0.0014237
8 *314:12 0.00171251
9 *314:22 *335:27 0.000188934
10 *314:28 *335:27 2.04774e-05
11 o_index[0] *314:14 1.5769e-05
12 *991:A2 *314:12 1.60762e-05
13 *991:B1 *314:12 0.00017606
14 *1002:B1 *314:22 8.17547e-05
15 *1170:RESET_B *314:28 8.91405e-05
16 *1234:A *314:14 0.000187129
17 *1260:A *314:14 5.67058e-05
18 *1265:A *314:12 1.76557e-05
19 *7:15 *314:12 5.67058e-05
20 *17:15 *314:22 7.41768e-05
21 *36:14 *314:12 9.92345e-05
22 *93:219 *314:28 3.50862e-06
23 *93:249 *314:14 0.00240983
24 *93:265 *314:12 0.000167119
25 *93:265 *314:14 0.000228909
26 *158:23 *314:28 7.42809e-05
27 *161:8 *314:28 0.000140142
28 *253:8 *314:22 0.000187199
29 *259:10 *314:14 2.93747e-05
30 *261:12 *314:14 4.17736e-05
31 *281:6 *314:12 0.000101253
32 *307:10 *314:14 1.72202e-05
33 *307:10 *314:22 9.5877e-05
*RES
1 *1265:X *314:12 38.9293 
2 *314:12 *314:14 29.2071 
3 *314:14 *314:22 11.165 
4 *314:22 *314:28 35.7793 
5 *314:28 *997:A2 23 
6 *314:22 *996:A2 23 
7 *314:14 *1002:A2 23.4971 
*END

*D_NET *315 0.00112652
*CONN
*I *1000:A0 I *D sky130_fd_sc_hd__mux2_1
*I *1242:X O *D sky130_fd_sc_hd__dlygate4sd3_1
*CAP
1 *1000:A0 0.000428571
2 *1242:X 7.79692e-05
3 *315:8 0.00050654
4 *303:30 *1000:A0 1.358e-05
5 *303:47 *1000:A0 9.98623e-05
*RES
1 *1242:X *315:8 39.2014 
2 *315:8 *1000:A0 43.3857 
*END

*D_NET *316 0.000915583
*CONN
*I *1017:A0 I *D sky130_fd_sc_hd__mux2_1
*I *1243:X O *D sky130_fd_sc_hd__dlygate4sd3_1
*CAP
1 *1017:A0 0
2 *1243:X 0.000200653
3 *316:10 0.000200653
4 *316:10 *319:20 0.000187069
5 *316:10 *320:47 0.000166522
6 *316:10 *339:16 0.000160685
*RES
1 *1243:X *316:10 42.3086 
2 *316:10 *1017:A0 38 
*END

*D_NET *317 0.000475326
*CONN
*I *1045:A0 I *D sky130_fd_sc_hd__mux2_1
*I *1244:X O *D sky130_fd_sc_hd__dlygate4sd3_1
*CAP
1 *1045:A0 0.000208845
2 *1244:X 0.000208845
3 *1045:A1 *1045:A0 5.76359e-05
*RES
1 *1244:X *1045:A0 49.48 
*END

*D_NET *318 0.000889189
*CONN
*I *989:A0 I *D sky130_fd_sc_hd__mux2_1
*I *1245:X O *D sky130_fd_sc_hd__dlygate4sd3_1
*CAP
1 *989:A0 0.000101508
2 *1245:X 9.07054e-05
3 *318:8 0.000192213
4 *1136:CLK *318:8 6.79467e-05
5 *1140:CLK *318:8 1.58805e-05
6 *1177:CLK *989:A0 4.79641e-05
7 *211:10 *318:8 5.0108e-05
8 *247:62 *989:A0 0.000142645
9 *270:18 *989:A0 0.000180218
*RES
1 *1245:X *318:8 40.2579 
2 *318:8 *989:A0 41.0243 
*END

*D_NET *319 0.00979197
*CONN
*I *1015:A1 I *D sky130_fd_sc_hd__mux2_1
*I *1012:B1 I *D sky130_fd_sc_hd__o211a_1
*I *1266:X O *D sky130_fd_sc_hd__buf_1
*CAP
1 *1015:A1 0
2 *1012:B1 0
3 *1266:X 0.000232445
4 *319:20 0.0005655
5 *319:10 0.00288849
6 *319:8 0.00255544
7 *319:20 *1012:A2 1.14452e-05
8 *319:20 *326:53 0.000119818
9 *319:20 *339:16 0
10 *319:20 *340:6 0.000447442
11 *1143:RESET_B *319:10 9.90035e-05
12 *1143:RESET_B *319:20 0.000224345
13 *1153:CLK *319:10 8.88026e-05
14 *1153:CLK *319:20 2.08324e-05
15 *1169:CLK *319:10 9.176e-05
16 *1182:RESET_B *319:10 0
17 *30:34 *319:10 0.00123464
18 *37:8 *319:10 0
19 *48:10 *319:10 6.95035e-05
20 *54:10 *319:10 0
21 *69:8 *319:10 0
22 *78:12 *319:10 0.000197479
23 *93:87 *319:20 3.36312e-06
24 *173:14 *319:20 9.36049e-05
25 *203:10 *319:10 0
26 *241:12 *319:10 0.000195595
27 *241:38 *319:10 0.000228383
28 *256:405 *319:10 0
29 *280:10 *319:10 0
30 *283:10 *319:10 9.38488e-05
31 *286:8 *319:10 0.000143158
32 *316:10 *319:20 0.000187069
*RES
1 *1266:X *319:8 41.0036 
2 *319:8 *319:10 55.0793 
3 *319:10 *319:20 43.5679 
4 *319:20 *1012:B1 38 
5 *319:10 *1015:A1 38 
*END

*D_NET *320 0.00917067
*CONN
*I *1012:A2 I *D sky130_fd_sc_hd__o211a_1
*I *1017:A1 I *D sky130_fd_sc_hd__mux2_1
*I *1013:B2 I *D sky130_fd_sc_hd__a22o_1
*I *1267:X O *D sky130_fd_sc_hd__buf_1
*CAP
1 *1012:A2 0.000144321
2 *1017:A1 0
3 *1013:B2 1.17716e-05
4 *1267:X 6.14794e-05
5 *320:47 0.000433402
6 *320:30 0.000661762
7 *320:22 0.00130201
8 *320:14 0.00210657
9 *320:8 0.00122696
10 *1012:A2 *326:53 0.000259725
11 *1013:B2 *341:22 5.79559e-05
12 *320:22 *326:53 0.000327266
13 *320:22 *346:14 4.89706e-05
14 *320:30 *341:22 8.88657e-05
15 *320:47 *339:16 3.38562e-05
16 *1013:A1 *1013:B2 5.56279e-05
17 *1013:A1 *320:30 5.56356e-05
18 *1034:A1 *320:22 0
19 *1150:RESET_B *320:22 0.000139568
20 *1267:A *320:8 8.85189e-05
21 *93:62 *320:22 0
22 *93:87 *320:47 2.8183e-05
23 *168:6 *320:30 4.21048e-05
24 *168:27 *320:47 0.00013449
25 *170:8 *320:47 4.334e-05
26 *172:10 *320:47 0.000133658
27 *173:14 *320:47 0
28 *186:8 *320:22 8.57577e-05
29 *240:67 *320:22 0.000226363
30 *249:37 *320:30 0
31 *249:37 *320:47 5.09782e-05
32 *251:14 *320:22 0
33 *252:23 *320:22 0
34 *255:16 *320:14 0.00114357
35 *256:189 *320:47 0
36 *316:10 *320:47 0.000166522
37 *319:20 *1012:A2 1.14452e-05
*RES
1 *1267:X *320:8 39.2014 
2 *320:8 *320:14 40.8929 
3 *320:14 *320:22 34.7511 
4 *320:22 *320:30 18.4696 
5 *320:30 *1013:B2 23.6214 
6 *320:30 *320:47 39.715 
7 *320:47 *1017:A1 23 
8 *320:22 *1012:A2 41.4904 
*END

*D_NET *321 0.000291152
*CONN
*I *1230:A I *D sky130_fd_sc_hd__dlygate4sd3_1
*I *1140:Q O *D sky130_fd_sc_hd__dfrtp_1
*CAP
1 *1230:A 3.93866e-05
2 *1140:Q 6.19298e-05
3 *321:8 0.000101316
4 *256:628 *321:8 8.85189e-05
*RES
1 *1140:Q *321:8 39.2014 
2 *321:8 *1230:A 38.8493 
*END

*D_NET *322 0.000311098
*CONN
*I *1227:A I *D sky130_fd_sc_hd__dlygate4sd3_1
*I *1141:Q O *D sky130_fd_sc_hd__dfrtp_1
*CAP
1 *1227:A 0
2 *1141:Q 6.72252e-05
3 *322:8 6.72252e-05
4 *210:10 *322:8 3.60049e-05
5 *256:628 *322:8 0.000140642
*RES
1 *1141:Q *322:8 39.9057 
2 *322:8 *1227:A 38 
*END

*D_NET *323 9.0866e-05
*CONN
*I *1221:A I *D sky130_fd_sc_hd__dlygate4sd3_1
*I *1142:Q O *D sky130_fd_sc_hd__dfrtp_1
*CAP
1 *1221:A 3.06567e-05
2 *1142:Q 3.06567e-05
3 *246:83 *1221:A 2.95526e-05
*RES
1 *1142:Q *1221:A 46.6214 
*END

*D_NET *324 0.0272903
*CONN
*I *975:A1 I *D sky130_fd_sc_hd__mux2_1
*I *1003:A1 I *D sky130_fd_sc_hd__mux2_1
*I *1233:A I *D sky130_fd_sc_hd__dlygate4sd3_1
*I *1126:A2 I *D sky130_fd_sc_hd__a21oi_1
*I *1020:A1 I *D sky130_fd_sc_hd__mux2_1
*I *1037:A1 I *D sky130_fd_sc_hd__mux2_1
*I *1048:A1 I *D sky130_fd_sc_hd__mux2_1
*I *920:C I *D sky130_fd_sc_hd__and3_1
*I *1192:Q O *D sky130_fd_sc_hd__dfrtp_4
*CAP
1 *975:A1 4.26858e-05
2 *1003:A1 0
3 *1233:A 3.98341e-05
4 *1126:A2 0
5 *1020:A1 0
6 *1037:A1 0.00028874
7 *1048:A1 0.000220365
8 *920:C 0.000366196
9 *1192:Q 8.59657e-05
10 *324:120 0.00114838
11 *324:116 0.00181346
12 *324:106 0.0011144
13 *324:81 0.00145647
14 *324:70 0.00280351
15 *324:68 0.00180108
16 *324:34 0.000783329
17 *324:32 0.00106201
18 *324:26 0.000951874
19 *324:18 0.00200183
20 *324:8 0.00162519
21 *920:C *342:8 2.02853e-05
22 *1048:A1 *920:B 5.5792e-05
23 *1233:A *325:97 3.86731e-05
24 *324:18 *970:A 7.61229e-06
25 *324:18 *325:97 0.000953001
26 *324:26 *325:8 0.000595412
27 *324:26 *325:97 9.98069e-06
28 *324:32 *325:8 7.19608e-05
29 *324:32 *325:12 0.00022823
30 *324:34 *920:B 0.000214412
31 *324:34 *325:14 0.000110258
32 *324:68 *325:14 2.45092e-05
33 *324:68 *325:50 0.0013267
34 *324:81 *362:14 0.000380789
35 *324:81 *363:38 4.73585e-05
36 *324:116 *349:10 3.84905e-05
37 *324:120 *325:112 0.000558458
38 *975:S *324:116 9.89307e-05
39 *977:A0 *324:116 8.89076e-05
40 *1056:A1 *324:116 4.41504e-05
41 *1117:A *324:81 0.000141888
42 *1127:A *1048:A1 5.5792e-05
43 *1190:RESET_B *324:70 0.000138859
44 *31:8 *324:116 7.90568e-05
45 *41:10 *324:120 0.000324656
46 *74:10 *324:120 5.80435e-05
47 *91:16 *920:C 8.61988e-05
48 *93:122 *324:32 0.000312459
49 *93:133 *324:32 5.5792e-05
50 *93:213 *324:81 0
51 *102:43 *324:81 8.76088e-05
52 *102:54 *324:81 0
53 *102:64 *324:81 0
54 *126:43 *324:81 0.00034719
55 *126:54 *324:81 0.000243246
56 *126:113 *324:68 8.7132e-05
57 *126:133 *324:68 0
58 *126:208 *324:120 0.000238768
59 *141:18 *324:18 0.000102123
60 *145:55 *324:106 0
61 *145:55 *324:116 3.70094e-05
62 *146:8 *324:106 2.79004e-05
63 *154:33 *324:120 0
64 *166:16 *324:120 3.78543e-05
65 *192:8 *920:C 0
66 *195:10 *324:120 0.000259056
67 *201:8 *324:81 2.34077e-05
68 *205:10 *324:81 0.000166595
69 *239:55 *324:68 7.42079e-06
70 *239:59 *324:68 0.000986152
71 *239:98 *1037:A1 0.000145163
72 *242:57 *324:26 5.75756e-06
73 *244:73 *324:81 0.000271447
74 *245:8 *324:81 0
75 *256:38 *324:106 0
76 *256:292 *324:81 0
77 *256:318 *324:81 0
78 *256:330 *324:81 0
79 *294:10 *324:120 2.22077e-05
80 *299:12 *324:120 0
81 *300:6 *975:A1 4.44329e-05
82 *300:16 *975:A1 5.79559e-05
83 *300:16 *324:116 1.3523e-05
84 *301:16 *920:C 6.1038e-05
85 *301:16 *1048:A1 0.000112591
86 *301:16 *324:34 8.82976e-05
87 *301:29 *324:26 4.43801e-05
*RES
1 *1192:Q *324:8 39.0979 
2 *324:8 *324:18 36.8536 
3 *324:18 *324:26 43.2571 
4 *324:26 *324:32 19.4536 
5 *324:32 *324:34 4.72286 
6 *324:34 *920:C 43.9968 
7 *324:34 *1048:A1 42.93 
8 *324:32 *324:68 37.5164 
9 *324:68 *324:70 13.485 
10 *324:70 *1037:A1 26.9564 
11 *324:70 *324:81 47.8943 
12 *324:81 *1020:A1 38 
13 *324:26 *1126:A2 23 
14 *324:18 *1233:A 24.2014 
15 *324:8 *324:106 22.685 
16 *324:106 *324:116 28.9511 
17 *324:116 *324:120 44.1968 
18 *324:120 *1003:A1 23 
19 *324:106 *975:A1 24.0979 
*END

*D_NET *325 0.0261217
*CONN
*I *1005:A1 I *D sky130_fd_sc_hd__mux2_1
*I *977:A1 I *D sky130_fd_sc_hd__mux2_1
*I *1126:B1 I *D sky130_fd_sc_hd__a21oi_1
*I *1039:A1 I *D sky130_fd_sc_hd__mux2_1
*I *1022:A1 I *D sky130_fd_sc_hd__mux2_1
*I *1050:A1 I *D sky130_fd_sc_hd__mux2_1
*I *920:B I *D sky130_fd_sc_hd__and3_1
*I *1193:Q O *D sky130_fd_sc_hd__dfrtp_4
*CAP
1 *1005:A1 0
2 *977:A1 0.000128546
3 *1126:B1 0
4 *1039:A1 0
5 *1022:A1 0
6 *1050:A1 0.000226283
7 *920:B 0.000375176
8 *1193:Q 0
9 *325:112 0.00151668
10 *325:97 0.00254849
11 *325:64 0.0012167
12 *325:54 0.00132966
13 *325:50 0.00159073
14 *325:14 0.000698115
15 *325:12 0.00165773
16 *325:8 0.000550926
17 *325:4 0.00137088
18 *920:B *343:8 1.57386e-05
19 *1050:A1 *1214:A 0.000142678
20 *325:12 *326:36 0.00022823
21 *325:14 *343:8 1.98991e-05
22 *325:50 *945:B 0.000216712
23 *325:50 *1068:A0 0.000103201
24 *325:50 *368:8 0.000138718
25 *325:64 *326:53 0.000319843
26 *325:64 *326:80 0.000844702
27 *325:112 *923:A 0
28 *949:A *325:50 0.0004821
29 *977:A0 *977:A1 3.22879e-05
30 *977:A0 *325:112 8.07434e-05
31 *979:A0 *325:97 0
32 *1007:S *325:112 0.000336304
33 *1039:A0 *325:50 7.64059e-06
34 *1039:A0 *325:54 0.000223427
35 *1039:A0 *325:64 5.82853e-05
36 *1048:A1 *920:B 5.5792e-05
37 *1050:A0 *1050:A1 0.000102092
38 *1056:A1 *325:112 4.06418e-05
39 *1058:A1 *325:97 0
40 *1068:S *325:50 7.9566e-05
41 *1127:A *920:B 6.10741e-05
42 *1131:CLK *325:112 0
43 *1154:RESET_B *325:64 0.000276775
44 *1161:CLK *325:112 0
45 *1193:D *325:8 3.46302e-05
46 *1193:RESET_B *325:8 2.84479e-05
47 *1233:A *325:97 3.86731e-05
48 *1250:A *325:50 0.000326398
49 *61:8 *325:112 0.000116314
50 *93:112 *325:14 3.50862e-06
51 *93:112 *325:50 7.80007e-05
52 *93:122 *325:12 2.65505e-05
53 *94:17 *920:B 9.66585e-05
54 *119:14 *325:50 9.06073e-05
55 *126:69 *325:64 0
56 *126:113 *325:50 7.75992e-05
57 *126:198 *325:112 0
58 *141:18 *325:97 4.68426e-05
59 *142:10 *325:97 1.84917e-05
60 *145:40 *325:97 0.00043394
61 *154:33 *325:112 6.07611e-06
62 *173:38 *325:54 5.82853e-05
63 *173:38 *325:64 0.000189857
64 *184:44 *1050:A1 2.95423e-05
65 *188:10 *325:64 5.3304e-05
66 *195:10 *325:112 0.000557396
67 *209:8 *325:112 6.43796e-05
68 *239:32 *325:64 0.000140036
69 *242:86 *325:97 0
70 *242:99 *325:97 0.000190742
71 *253:66 *1050:A1 7.64964e-05
72 *256:36 *325:97 0.000129504
73 *256:36 *325:112 0.000303269
74 *256:38 *325:97 0.00018557
75 *256:77 *325:8 6.96978e-05
76 *256:77 *325:97 0.000469711
77 *256:83 *325:8 3.20619e-05
78 *256:266 *325:64 0.000373837
79 *256:286 *325:64 0.000291474
80 *256:292 *325:64 0
81 *262:18 *325:97 0
82 *277:21 *325:64 2.54046e-05
83 *287:21 *1050:A1 2.49002e-05
84 *295:10 *325:50 0.000215244
85 *303:30 *325:64 4.89661e-05
86 *324:18 *325:97 0.000953001
87 *324:26 *325:8 0.000595412
88 *324:26 *325:97 9.98069e-06
89 *324:32 *325:8 7.19608e-05
90 *324:32 *325:12 0.00022823
91 *324:34 *920:B 0.000214412
92 *324:34 *325:14 0.000110258
93 *324:68 *325:14 2.45092e-05
94 *324:68 *325:50 0.0013267
95 *324:120 *325:112 0.000558458
*RES
1 *1193:Q *325:4 23 
2 *325:4 *325:8 13.5057 
3 *325:8 *325:12 18.0036 
4 *325:12 *325:14 1.90571 
5 *325:14 *920:B 43.9657 
6 *325:14 *1050:A1 44.0486 
7 *325:12 *325:50 49.7379 
8 *325:50 *325:54 3.72857 
9 *325:54 *325:64 47.5629 
10 *325:64 *1022:A1 38 
11 *325:54 *1039:A1 23 
12 *325:8 *1126:B1 23 
13 *325:4 *325:97 41.4521 
14 *325:97 *977:A1 39.5743 
15 *325:97 *325:112 38.2386 
16 *325:112 *1005:A1 38 
*END

*D_NET *326 0.0256411
*CONN
*I *1007:A1 I *D sky130_fd_sc_hd__mux2_1
*I *979:A1 I *D sky130_fd_sc_hd__mux2_1
*I *1128:A I *D sky130_fd_sc_hd__nor2_1
*I *921:A I *D sky130_fd_sc_hd__and2_1
*I *1024:A1 I *D sky130_fd_sc_hd__mux2_1
*I *1041:A1 I *D sky130_fd_sc_hd__mux2_1
*I *1052:A1 I *D sky130_fd_sc_hd__mux2_1
*I *1194:Q O *D sky130_fd_sc_hd__dfrtp_4
*CAP
1 *1007:A1 0.000121839
2 *979:A1 0
3 *1128:A 0
4 *921:A 0
5 *1024:A1 0
6 *1041:A1 0.000100007
7 *1052:A1 0
8 *1194:Q 2.30556e-05
9 *326:126 0.00143806
10 *326:115 0.00138007
11 *326:111 0.00122776
12 *326:100 0.000141622
13 *326:80 0.000850305
14 *326:53 0.00222623
15 *326:36 0.00234273
16 *326:26 0.00140666
17 *326:18 0.000962283
18 *326:8 0.000951377
19 *326:6 0.00137428
20 *326:53 *338:10 6.07611e-06
21 *326:53 *339:16 0
22 *326:80 *338:10 6.07929e-05
23 *326:126 *355:31 0.000436911
24 *920:A *326:26 2.64616e-05
25 *979:A0 *326:115 5.50106e-05
26 *979:A0 *326:126 4.34745e-05
27 *1007:A0 *1007:A1 5.82853e-05
28 *1012:A2 *326:53 0.000259725
29 *1041:A0 *1041:A1 0.000218664
30 *1052:A0 *326:36 0.000464226
31 *1127:B *326:26 5.5792e-05
32 *1128:B *326:100 3.28357e-06
33 *1148:RESET_B *326:80 0.000143655
34 *1157:RESET_B *326:111 8.77263e-05
35 *1159:CLK *326:36 5.58003e-05
36 *1159:D *326:36 2.95423e-05
37 *1159:RESET_B *326:36 0.00013112
38 *1194:D *326:18 0.000141954
39 *1194:RESET_B *326:8 4.17736e-05
40 *1194:RESET_B *326:18 5.00902e-05
41 *1194:RESET_B *326:100 8.62876e-05
42 *32:10 *326:126 7.28526e-05
43 *52:10 *326:53 0.000113398
44 *53:10 *326:53 0.000113498
45 *91:16 *326:18 4.35829e-05
46 *91:16 *326:26 3.0415e-05
47 *93:122 *326:36 7.33916e-05
48 *93:133 *326:18 6.2088e-05
49 *93:141 *326:8 1.51718e-05
50 *93:141 *326:18 0.000166672
51 *93:141 *326:111 2.28276e-05
52 *93:162 *326:111 0.000136081
53 *94:17 *326:18 5.3304e-05
54 *94:17 *326:26 0.000175903
55 *98:144 *326:126 0.00130085
56 *99:59 *326:126 2.47992e-05
57 *104:10 *326:126 0.000350176
58 *113:8 *1007:A1 0.000117263
59 *126:144 *326:111 0.000191565
60 *126:144 *326:126 0.000223961
61 *126:157 *326:126 0.00029165
62 *126:177 *326:126 0.000306195
63 *167:10 *1007:A1 2.64616e-05
64 *173:64 *1041:A1 2.01003e-05
65 *178:8 *326:80 0.00016885
66 *194:10 *326:36 3.28357e-06
67 *194:10 *326:53 8.26478e-05
68 *237:8 *326:26 0.000414456
69 *238:10 *326:18 0
70 *240:31 *326:36 0.000272915
71 *241:72 *1041:A1 0.000166825
72 *242:86 *326:115 1.21972e-05
73 *244:44 *326:80 3.24987e-05
74 *253:72 *326:100 1.35999e-05
75 *256:77 *326:111 3.49736e-05
76 *256:254 *326:53 0.000476799
77 *256:266 *326:53 3.96058e-05
78 *262:18 *326:126 0
79 *291:6 *326:36 9.02884e-05
80 *301:16 *326:26 9.98704e-05
81 *303:24 *326:80 0.000877748
82 *303:30 *326:80 0
83 *306:8 *326:111 3.84404e-05
84 *309:10 *326:111 4.11274e-05
85 *319:20 *326:53 0.000119818
86 *320:22 *326:53 0.000327266
87 *325:12 *326:36 0.00022823
88 *325:64 *326:53 0.000319843
89 *325:64 *326:80 0.000844702
*RES
1 *1194:Q *326:6 23.4971 
2 *326:6 *326:8 2.52714 
3 *326:8 *326:18 40.1707 
4 *326:18 *326:26 37.83 
5 *326:26 *326:36 24.5257 
6 *326:36 *1052:A1 23 
7 *326:36 *326:53 45.3671 
8 *326:53 *1041:A1 42.1429 
9 *326:53 *326:80 40.2921 
10 *326:80 *1024:A1 23 
11 *326:18 *921:A 23 
12 *326:8 *326:100 32.6721 
13 *326:100 *1128:A 23 
14 *326:6 *326:111 35.3414 
15 *326:111 *326:115 16.0979 
16 *326:115 *979:A1 23 
17 *326:115 *326:126 49.5721 
18 *326:126 *1007:A1 41.0036 
*END

*D_NET *327 0.00175216
*CONN
*I *1240:A I *D sky130_fd_sc_hd__dlygate4sd3_1
*I *983:A I *D sky130_fd_sc_hd__inv_2
*I *1134:Q O *D sky130_fd_sc_hd__dfrtp_1
*CAP
1 *1240:A 0
2 *983:A 0
3 *1134:Q 9.31681e-05
4 *327:25 0.000481107
5 *327:12 0.000138605
6 *327:6 0.00071288
7 *1134:RESET_B *327:6 2.45549e-06
8 *1134:RESET_B *327:12 7.51578e-05
9 *93:277 *327:25 0
10 *259:10 *327:12 0.000248786
11 *312:8 *327:25 0
*RES
1 *1134:Q *327:6 24.0979 
2 *327:6 *327:12 33.6664 
3 *327:12 *983:A 23 
4 *327:6 *327:25 36.3386 
5 *327:25 *1240:A 23 
*END

*D_NET *328 0.00101434
*CONN
*I *1245:A I *D sky130_fd_sc_hd__dlygate4sd3_1
*I *982:A I *D sky130_fd_sc_hd__inv_2
*I *1135:Q O *D sky130_fd_sc_hd__dfrtp_1
*CAP
1 *1245:A 6.68084e-05
2 *982:A 0
3 *1135:Q 4.76617e-05
4 *328:14 0.000160303
5 *328:6 0.000274773
6 *984:A1 *328:14 1.12796e-05
7 *1136:CLK *328:14 4.33069e-05
8 *99:22 *1245:A 0.00023387
9 *99:22 *328:6 0.000100477
10 *211:10 *1245:A 7.58643e-05
*RES
1 *1135:Q *328:6 24.0979 
2 *328:6 *328:14 33.1071 
3 *328:14 *982:A 23 
4 *328:6 *1245:A 25.5271 
*END

*D_NET *329 0.000832424
*CONN
*I *1237:A I *D sky130_fd_sc_hd__dlygate4sd3_1
*I *981:A I *D sky130_fd_sc_hd__inv_2
*I *1136:Q O *D sky130_fd_sc_hd__dfrtp_1
*CAP
1 *1237:A 0.000110572
2 *981:A 0.00030564
3 *1136:Q 0
4 *329:6 0.000416212
5 *7:15 *1237:A 0
6 *281:29 *981:A 0
7 *281:29 *1237:A 0
*RES
1 *1136:Q *329:6 38 
2 *329:6 *981:A 43.8621 
3 *329:6 *1237:A 39.9057 
*END

*D_NET *330 0.00042932
*CONN
*I *1211:A I *D sky130_fd_sc_hd__dlygate4sd3_1
*I *1146:Q O *D sky130_fd_sc_hd__dfrtp_1
*CAP
1 *1211:A 3.7965e-05
2 *1146:Q 0.000127455
3 *330:8 0.00016542
4 *93:219 *330:8 0
5 *102:30 *1211:A 9.84794e-05
6 *102:43 *330:8 0
*RES
1 *1146:Q *330:8 39.9057 
2 *330:8 *1211:A 39.0979 
*END

*D_NET *331 0.000482765
*CONN
*I *1223:A I *D sky130_fd_sc_hd__dlygate4sd3_1
*I *1147:Q O *D sky130_fd_sc_hd__dfrtp_1
*CAP
1 *1223:A 0.00019717
2 *1147:Q 0.00019717
3 *1075:A *1223:A 5.58003e-05
4 *296:10 *1223:A 3.26241e-05
*RES
1 *1147:Q *1223:A 49.48 
*END

*D_NET *332 0.0021325
*CONN
*I *1207:A I *D sky130_fd_sc_hd__dlygate4sd3_1
*I *1148:Q O *D sky130_fd_sc_hd__dfrtp_1
*CAP
1 *1207:A 0.000149116
2 *1148:Q 0.000363921
3 *332:12 0.000513037
4 *1148:RESET_B *332:12 0.000569509
5 *245:8 *1207:A 0.000116224
6 *256:354 *1207:A 0.000141879
7 *256:367 *1207:A 0.000222113
8 *279:14 *332:12 5.67058e-05
*RES
1 *1148:Q *332:12 45.8093 
2 *332:12 *1207:A 42.7229 
*END

*D_NET *333 0.000549014
*CONN
*I *1239:A I *D sky130_fd_sc_hd__dlygate4sd3_1
*I *994:A I *D sky130_fd_sc_hd__inv_2
*I *1137:Q O *D sky130_fd_sc_hd__dfrtp_1
*CAP
1 *1239:A 7.55868e-05
2 *994:A 5.00962e-05
3 *1137:Q 4.55529e-05
4 *333:8 0.000171236
5 *996:A1 *1239:A 0
6 *997:A1 *994:A 0
7 *1139:RESET_B *333:8 2.93747e-05
8 *303:68 *994:A 4.63038e-05
9 *303:68 *1239:A 0.000130863
*RES
1 *1137:Q *333:8 38.6214 
2 *333:8 *994:A 39.2014 
3 *333:8 *1239:A 39.9057 
*END

*D_NET *334 0.000768319
*CONN
*I *1242:A I *D sky130_fd_sc_hd__dlygate4sd3_1
*I *993:A I *D sky130_fd_sc_hd__inv_2
*I *1138:Q O *D sky130_fd_sc_hd__dfrtp_1
*CAP
1 *1242:A 0.00015893
2 *993:A 0
3 *1138:Q 4.17755e-05
4 *334:12 0.000169383
5 *334:6 0.000370088
6 *303:68 *334:12 2.81425e-05
*RES
1 *1138:Q *334:6 23.6214 
2 *334:6 *334:12 32.9621 
3 *334:12 *993:A 23 
4 *334:6 *1242:A 26.0036 
*END

*D_NET *335 0.00187003
*CONN
*I *1204:A I *D sky130_fd_sc_hd__dlygate4sd3_1
*I *992:A I *D sky130_fd_sc_hd__inv_2
*I *1139:Q O *D sky130_fd_sc_hd__dfrtp_1
*CAP
1 *1204:A 0
2 *992:A 0
3 *1139:Q 0
4 *335:27 0.000459202
5 *335:12 5.32118e-05
6 *335:4 0.000512414
7 *996:A1 *335:12 6.07611e-06
8 *997:A1 *335:12 4.63038e-05
9 *1139:RESET_B *335:12 5.5792e-05
10 *1139:RESET_B *335:27 3.92437e-05
11 *17:15 *335:27 0.000146822
12 *30:70 *335:12 5.82853e-05
13 *158:23 *335:12 1.69668e-05
14 *161:8 *335:27 8.62876e-05
15 *245:76 *335:12 1.55261e-05
16 *245:76 *335:27 0.000164486
17 *314:22 *335:27 0.000188934
18 *314:28 *335:27 2.04774e-05
*RES
1 *1139:Q *335:4 23 
2 *335:4 *335:12 31.8229 
3 *335:12 *992:A 23 
4 *335:4 *335:27 38.3893 
5 *335:27 *1204:A 23 
*END

*D_NET *336 6.86944e-05
*CONN
*I *1206:A I *D sky130_fd_sc_hd__dlygate4sd3_1
*I *1152:Q O *D sky130_fd_sc_hd__dfrtp_1
*CAP
1 *1206:A 2.38221e-05
2 *1152:Q 2.38221e-05
3 *278:8 *1206:A 2.10502e-05
*RES
1 *1152:Q *1206:A 46.6214 
*END

*D_NET *337 0.00091819
*CONN
*I *1249:A I *D sky130_fd_sc_hd__dlygate4sd3_1
*I *1153:Q O *D sky130_fd_sc_hd__dfrtp_1
*CAP
1 *1249:A 0
2 *1153:Q 0.000352299
3 *337:6 0.000352299
4 *337:6 *946:B 1.32314e-05
5 *1069:A *337:6 0.000143655
6 *68:10 *337:6 5.67058e-05
*RES
1 *1153:Q *337:6 29.815 
2 *337:6 *1249:A 23 
*END

*D_NET *338 0.000859934
*CONN
*I *1205:A I *D sky130_fd_sc_hd__dlygate4sd3_1
*I *1154:Q O *D sky130_fd_sc_hd__dfrtp_1
*CAP
1 *1205:A 0
2 *1154:Q 0.000280951
3 *338:10 0.000280951
4 *1154:RESET_B *338:10 0.000231164
5 *326:53 *338:10 6.07611e-06
6 *326:80 *338:10 6.07929e-05
*RES
1 *1154:Q *338:10 42.4329 
2 *338:10 *1205:A 38 
*END

*D_NET *339 0.00211854
*CONN
*I *1235:A I *D sky130_fd_sc_hd__dlygate4sd3_1
*I *1011:A I *D sky130_fd_sc_hd__inv_2
*I *1143:Q O *D sky130_fd_sc_hd__dfrtp_1
*CAP
1 *1235:A 0.000213432
2 *1011:A 0
3 *1143:Q 9.58554e-05
4 *339:16 0.000305483
5 *339:8 0.00061477
6 *339:16 *340:6 5.56279e-05
7 *1153:CLK *339:16 0
8 *53:10 *1235:A 0.000275846
9 *53:10 *339:16 0
10 *173:14 *339:16 0
11 *188:10 *1235:A 0.000167969
12 *308:10 *1235:A 0.000144501
13 *308:10 *339:16 5.0518e-05
14 *316:10 *339:16 0.000160685
15 *319:20 *339:16 0
16 *320:47 *339:16 3.38562e-05
17 *326:53 *339:16 0
*RES
1 *1143:Q *339:8 24.595 
2 *339:8 *339:16 36.0486 
3 *339:16 *1011:A 23 
4 *339:8 *1235:A 28.8829 
*END

*D_NET *340 0.00130503
*CONN
*I *1010:A I *D sky130_fd_sc_hd__inv_2
*I *1243:A I *D sky130_fd_sc_hd__dlygate4sd3_1
*I *1144:Q O *D sky130_fd_sc_hd__dfrtp_1
*CAP
1 *1010:A 9.26679e-05
2 *1243:A 0
3 *1144:Q 0.000308311
4 *340:6 0.000400979
5 *319:20 *340:6 0.000447442
6 *339:16 *340:6 5.56279e-05
*RES
1 *1144:Q *340:6 29.3386 
2 *340:6 *1243:A 23 
3 *340:6 *1010:A 24.595 
*END

*D_NET *341 0.00252105
*CONN
*I *1246:A I *D sky130_fd_sc_hd__dlygate4sd3_1
*I *1009:A I *D sky130_fd_sc_hd__inv_2
*I *1145:Q O *D sky130_fd_sc_hd__dfrtp_1
*CAP
1 *1246:A 0
2 *1009:A 0
3 *1145:Q 4.72417e-05
4 *341:37 0.000354536
5 *341:22 0.00030198
6 *341:6 0.000703758
7 *1013:A1 *341:22 1.14154e-05
8 *1013:B1 *341:22 2.52723e-05
9 *1013:B2 *341:22 5.79559e-05
10 *60:8 *341:22 0.000115559
11 *60:8 *341:37 8.50366e-05
12 *93:62 *341:22 0.000215628
13 *93:62 *341:37 1.98991e-05
14 *168:6 *341:22 3.09058e-05
15 *194:10 *341:37 0.000315524
16 *240:73 *341:6 5.3304e-05
17 *240:73 *341:37 9.41704e-05
18 *320:30 *341:22 8.88657e-05
*RES
1 *1145:Q *341:6 23.6214 
2 *341:6 *341:22 36.7943 
3 *341:22 *1009:A 23 
4 *341:6 *341:37 36.8357 
5 *341:37 *1246:A 23 
*END

*D_NET *342 0.00116983
*CONN
*I *1229:A I *D sky130_fd_sc_hd__dlygate4sd3_1
*I *1158:Q O *D sky130_fd_sc_hd__dfrtp_1
*CAP
1 *1229:A 7.31857e-05
2 *1158:Q 0.000184214
3 *342:8 0.000257399
4 *920:C *342:8 2.02853e-05
5 *192:8 *342:8 0
6 *237:8 *342:8 0.000183795
7 *242:46 *1229:A 3.77412e-05
8 *242:46 *342:8 0.000312862
9 *253:66 *1229:A 9.41704e-05
10 *301:16 *342:8 0
11 *301:29 *1229:A 6.17437e-06
*RES
1 *1158:Q *342:8 42.3707 
2 *342:8 *1229:A 39.595 
*END

*D_NET *343 0.000564414
*CONN
*I *1214:A I *D sky130_fd_sc_hd__dlygate4sd3_1
*I *1159:Q O *D sky130_fd_sc_hd__dfrtp_1
*CAP
1 *1214:A 3.97514e-05
2 *1159:Q 0.000108482
3 *343:8 0.000148233
4 *920:B *343:8 1.57386e-05
5 *1050:A1 *1214:A 0.000142678
6 *253:66 *1214:A 5.07601e-05
7 *287:21 *343:8 3.88725e-05
8 *325:14 *343:8 1.98991e-05
*RES
1 *1159:Q *343:8 39.9057 
2 *343:8 *1214:A 39.5743 
*END

*D_NET *344 0.000252059
*CONN
*I *1219:A I *D sky130_fd_sc_hd__dlygate4sd3_1
*I *1160:Q O *D sky130_fd_sc_hd__dfrtp_1
*CAP
1 *1219:A 2.72676e-05
2 *1160:Q 6.19231e-05
3 *344:8 8.91907e-05
4 *1052:A0 *1219:A 3.25507e-05
5 *291:21 *344:8 4.11274e-05
*RES
1 *1160:Q *344:8 39.2014 
2 *344:8 *1219:A 38.8493 
*END

*D_NET *345 0.00219508
*CONN
*I *1241:A I *D sky130_fd_sc_hd__dlygate4sd3_1
*I *1028:A I *D sky130_fd_sc_hd__inv_2
*I *1149:Q O *D sky130_fd_sc_hd__dfrtp_1
*CAP
1 *1241:A 0
2 *1028:A 0.000254773
3 *1149:Q 0.00042891
4 *345:12 0.000254773
5 *345:10 0.00042891
6 *1029:B1 *1028:A 0.000317553
7 *1258:A *1028:A 6.29487e-05
8 *184:32 *345:10 5.18956e-05
9 *192:8 *345:10 0
10 *250:14 *1028:A 0.000395318
11 *250:29 *345:10 0
*RES
1 *1149:Q *345:10 44.2971 
2 *345:10 *345:12 15 
3 *345:12 *1028:A 31.265 
4 *345:12 *1241:A 23 
*END

*D_NET *346 0.00248658
*CONN
*I *1027:A I *D sky130_fd_sc_hd__inv_2
*I *1034:A0 I *D sky130_fd_sc_hd__mux2_1
*I *1150:Q O *D sky130_fd_sc_hd__dfrtp_1
*CAP
1 *1027:A 0
2 *1034:A0 0
3 *1150:Q 7.14917e-05
4 *346:27 0.000391903
5 *346:14 0.000375012
6 *346:6 0.000838407
7 *1034:A1 *346:14 0.000141038
8 *49:12 *346:27 0
9 *180:25 *346:27 7.21237e-05
10 *181:8 *346:27 5.50106e-05
11 *184:20 *346:27 8.4047e-05
12 *184:65 *346:27 0.000139982
13 *240:50 *346:6 4.839e-05
14 *240:50 *346:14 0.000220206
15 *252:23 *346:27 0
16 *320:22 *346:14 4.89706e-05
*RES
1 *1150:Q *346:6 24.0979 
2 *346:6 *346:14 36.6907 
3 *346:14 *1034:A0 23 
4 *346:6 *346:27 37.4571 
5 *346:27 *1027:A 23 
*END

*D_NET *347 0.00085256
*CONN
*I *1026:A I *D sky130_fd_sc_hd__inv_2
*I *1226:A I *D sky130_fd_sc_hd__dlygate4sd3_1
*I *1151:Q O *D sky130_fd_sc_hd__dfrtp_1
*CAP
1 *1026:A 5.45354e-05
2 *1226:A 0
3 *1151:Q 6.34098e-05
4 *347:6 0.000117945
5 *1031:C1 *1026:A 8.52481e-05
6 *1031:C1 *347:6 0.000321606
7 *1150:RESET_B *1026:A 3.22879e-05
8 *1150:RESET_B *347:6 0.000177528
*RES
1 *1151:Q *347:6 26.48 
2 *347:6 *1226:A 23 
3 *347:6 *1026:A 24.595 
*END

*D_NET *348 0.000401957
*CONN
*I *1228:A I *D sky130_fd_sc_hd__dlygate4sd3_1
*I *1131:Q O *D sky130_fd_sc_hd__dfrtp_1
*CAP
1 *1228:A 0
2 *1131:Q 0.000200978
3 *348:10 0.000200978
4 *270:8 *348:10 0
*RES
1 *1131:Q *348:10 41.0036 
2 *348:10 *1228:A 38 
*END

*D_NET *349 0.00096254
*CONN
*I *1217:A I *D sky130_fd_sc_hd__dlygate4sd3_1
*I *1132:Q O *D sky130_fd_sc_hd__dfrtp_1
*CAP
1 *1217:A 0
2 *1132:Q 0.000256303
3 *349:10 0.000256303
4 *256:26 *349:10 0.000270406
5 *300:16 *349:10 0.000141038
6 *324:116 *349:10 3.84905e-05
*RES
1 *1132:Q *349:10 42.9093 
2 *349:10 *1217:A 38 
*END

*D_NET *350 0.00057663
*CONN
*I *1220:A I *D sky130_fd_sc_hd__dlygate4sd3_1
*I *1133:Q O *D sky130_fd_sc_hd__dfrtp_1
*CAP
1 *1220:A 0.00013084
2 *1133:Q 0.00013084
3 *1133:RESET_B *1220:A 0.00031495
*RES
1 *1133:Q *1220:A 49.48 
*END

*D_NET *351 0.000910945
*CONN
*I *1236:A I *D sky130_fd_sc_hd__dlygate4sd3_1
*I *971:A I *D sky130_fd_sc_hd__inv_2
*I *1155:Q O *D sky130_fd_sc_hd__dfrtp_1
*CAP
1 *1236:A 8.32749e-05
2 *971:A 0
3 *1155:Q 8.24815e-05
4 *351:14 0.000157918
5 *351:6 0.000323674
6 *1155:RESET_B *1236:A 6.43401e-05
7 *1155:RESET_B *351:6 4.42603e-05
8 *142:10 *351:14 7.52305e-05
9 *145:26 *1236:A 5.3304e-05
10 *309:10 *351:6 2.64616e-05
*RES
1 *1155:Q *351:6 24.5743 
2 *351:6 *351:14 33.1071 
3 *351:14 *971:A 23 
4 *351:6 *1236:A 25.0507 
*END

*D_NET *352 0.00096031
*CONN
*I *970:A I *D sky130_fd_sc_hd__inv_2
*I *1244:A I *D sky130_fd_sc_hd__dlygate4sd3_1
*I *1156:Q O *D sky130_fd_sc_hd__dfrtp_1
*CAP
1 *970:A 0.000308243
2 *1244:A 0
3 *1156:Q 0.000168105
4 *352:10 0.000476349
5 *324:18 *970:A 7.61229e-06
*RES
1 *1156:Q *352:10 40.8793 
2 *352:10 *1244:A 38 
3 *352:10 *970:A 43.6136 
*END

*D_NET *353 0.00123789
*CONN
*I *969:A I *D sky130_fd_sc_hd__inv_2
*I *1215:A I *D sky130_fd_sc_hd__dlygate4sd3_1
*I *1157:Q O *D sky130_fd_sc_hd__dfrtp_1
*CAP
1 *969:A 0.000120915
2 *1215:A 1.25102e-05
3 *1157:Q 8.85311e-05
4 *353:10 0.000133425
5 *353:8 8.85311e-05
6 *250:12 *969:A 0.000397596
7 *250:12 *1215:A 5.50049e-05
8 *255:35 *969:A 0.000170365
9 *255:35 *1215:A 3.22879e-05
10 *262:18 *353:8 0.000138727
*RES
1 *1157:Q *353:8 39.9057 
2 *353:8 *353:10 15 
3 *353:10 *1215:A 23.6214 
4 *353:10 *969:A 27.93 
*END

*D_NET *354 0.00122822
*CONN
*I *953:A I *D sky130_fd_sc_hd__buf_6
*I *1130:Q O *D sky130_fd_sc_hd__dfrtp_1
*CAP
1 *953:A 0
2 *1130:Q 0.000401735
3 *354:10 0.000401735
4 *242:12 *354:10 0.000370729
5 *242:31 *354:10 5.40241e-05
*RES
1 *1130:Q *354:10 44.6493 
2 *354:10 *953:A 38 
*END

*D_NET *355 0.0143499
*CONN
*I *925:A I *D sky130_fd_sc_hd__inv_2
*I *1105:A I *D sky130_fd_sc_hd__nand2_1
*I *1106:A I *D sky130_fd_sc_hd__or2_1
*I *936:B_N I *D sky130_fd_sc_hd__or2b_1
*I *1084:A1 I *D sky130_fd_sc_hd__mux2_1
*I *932:A1 I *D sky130_fd_sc_hd__a211o_1
*I *941:B I *D sky130_fd_sc_hd__xnor2_1
*I *1183:Q O *D sky130_fd_sc_hd__dfrtp_4
*CAP
1 *925:A 0
2 *1105:A 0
3 *1106:A 0
4 *936:B_N 0.000312249
5 *1084:A1 0
6 *932:A1 0
7 *941:B 0
8 *1183:Q 0.000165149
9 *355:92 0.000283682
10 *355:84 0.00068781
11 *355:61 0.00108487
12 *355:53 0.000534837
13 *355:44 0.00111717
14 *355:31 0.000701451
15 *355:19 0.00190295
16 *355:17 0.000457175
17 *355:6 0.000371645
18 *355:17 *358:12 1.83564e-05
19 *355:61 *374:25 0.000100061
20 *932:B1 *355:31 0.000172358
21 *1084:S *355:44 4.45955e-05
22 *1101:B1 *355:61 5.50106e-05
23 *1112:A1 *936:B_N 0.000201267
24 *1114:B1 *936:B_N 0.000147656
25 *1141:D *355:44 7.17698e-05
26 *1141:RESET_B *355:44 8.97328e-05
27 *1183:RESET_B *355:6 5.40241e-05
28 *1191:RESET_B *355:31 0.000494748
29 *1203:A *936:B_N 0.000214398
30 *30:113 *355:44 0.000233367
31 *42:8 *355:19 0.000132111
32 *42:8 *355:31 0.000193187
33 *97:33 *355:31 8.82507e-05
34 *98:8 *355:53 5.56356e-05
35 *98:8 *355:61 0.000969414
36 *98:144 *355:17 1.12487e-05
37 *98:144 *355:31 2.12195e-05
38 *98:144 *355:53 0.000475473
39 *99:134 *355:92 0.000164291
40 *102:30 *355:84 0.00030894
41 *126:177 *355:31 0.000263199
42 *126:265 *355:92 9.68428e-05
43 *139:23 *936:B_N 0.000123584
44 *139:23 *355:84 3.94619e-05
45 *139:36 *355:84 0.00026916
46 *139:47 *355:84 0.000167443
47 *167:10 *355:17 1.01436e-05
48 *167:10 *355:19 0.000222366
49 *167:10 *355:31 0.000373828
50 *219:22 *936:B_N 8.59717e-05
51 *219:45 *355:92 0
52 *221:8 *355:84 4.08537e-05
53 *222:10 *355:84 0
54 *230:10 *936:B_N 2.48267e-05
55 *256:688 *355:17 0
56 *256:696 *355:17 0
57 *256:696 *355:53 3.32734e-05
58 *256:702 *355:53 0.000102144
59 *256:702 *355:61 8.32328e-05
60 *256:720 *355:53 4.05794e-05
61 *326:126 *355:31 0.000436911
*RES
1 *1183:Q *355:6 26.0036 
2 *355:6 *941:B 23 
3 *355:6 *355:17 18.5836 
4 *355:17 *355:19 2.96214 
5 *355:19 *355:31 34.4093 
6 *355:31 *932:A1 23 
7 *355:19 *355:44 34.3679 
8 *355:44 *1084:A1 23 
9 *355:17 *355:53 20.8621 
10 *355:53 *355:61 26.9211 
11 *355:61 *936:B_N 46.1304 
12 *355:61 *355:84 24.7875 
13 *355:84 *355:92 35.2614 
14 *355:92 *1106:A 23 
15 *355:84 *1105:A 23 
16 *355:53 *925:A 23 
*END

*D_NET *356 0.000180803
*CONN
*I *926:A I *D sky130_fd_sc_hd__clkbuf_4
*I *1184:Q O *D sky130_fd_sc_hd__dfrtp_1
*CAP
1 *926:A 6.15834e-05
2 *1184:Q 6.15834e-05
3 *256:771 *926:A 5.76359e-05
*RES
1 *1184:Q *926:A 47.595 
*END

*D_NET *357 0.0008719
*CONN
*I *929:A I *D sky130_fd_sc_hd__clkbuf_4
*I *1185:Q O *D sky130_fd_sc_hd__dfrtp_1
*CAP
1 *929:A 4.95388e-05
2 *1185:Q 0.000228163
3 *357:10 0.000277702
4 *1185:RESET_B *357:10 0.000187389
5 *126:242 *929:A 0.000102389
6 *256:753 *357:10 2.67179e-05
*RES
1 *1185:Q *357:10 41.6043 
2 *357:10 *929:A 39.0979 
*END

*D_NET *358 0.0019961
*CONN
*I *1231:A I *D sky130_fd_sc_hd__dlygate4sd3_1
*I *941:A I *D sky130_fd_sc_hd__xnor2_1
*I *1173:Q O *D sky130_fd_sc_hd__dfrtp_1
*CAP
1 *1231:A 0
2 *941:A 0
3 *1173:Q 0
4 *358:27 0.000244832
5 *358:12 0.000458458
6 *358:4 0.000703289
7 *1078:A0 *358:27 5.67058e-05
8 *1140:CLK *358:27 2.02517e-05
9 *1173:RESET_B *358:12 9.54129e-05
10 *126:228 *358:27 0.000148524
11 *126:242 *358:12 0
12 *126:242 *358:27 5.561e-05
13 *247:62 *358:12 5.21059e-05
14 *256:688 *358:12 0.000142554
15 *302:23 *358:12 0
16 *355:17 *358:12 1.83564e-05
*RES
1 *1173:Q *358:4 23 
2 *358:4 *358:12 38.555 
3 *358:12 *941:A 23 
4 *358:4 *358:27 35.5307 
5 *358:27 *1231:A 23 
*END

*D_NET *359 0.00108996
*CONN
*I *940:A I *D sky130_fd_sc_hd__xnor2_1
*I *1232:A I *D sky130_fd_sc_hd__dlygate4sd3_1
*I *1174:Q O *D sky130_fd_sc_hd__dfrtp_1
*CAP
1 *940:A 0.000158
2 *1232:A 3.88e-05
3 *1174:Q 0.000212993
4 *359:10 0.000409793
5 *940:B *940:A 0.000100061
6 *99:47 *940:A 6.47558e-05
7 *99:47 *359:10 0.000105561
*RES
1 *1174:Q *359:10 41.5836 
2 *359:10 *1232:A 38.8493 
3 *359:10 *940:A 41.48 
*END

*D_NET *360 0.00368656
*CONN
*I *1082:A0 I *D sky130_fd_sc_hd__mux2_1
*I *939:A I *D sky130_fd_sc_hd__xnor2_1
*I *1175:Q O *D sky130_fd_sc_hd__dfrtp_1
*CAP
1 *1082:A0 0
2 *939:A 0.000952554
3 *1175:Q 3.95843e-05
4 *360:12 0.00106453
5 *360:8 0.000151563
6 *962:A *939:A 0.000147651
7 *74:10 *360:8 8.57485e-05
8 *112:12 *939:A 1.08287e-05
9 *113:8 *939:A 0.000869484
10 *113:8 *360:12 0.000137525
11 *113:28 *939:A 0.000141347
12 *126:208 *360:8 8.57485e-05
*RES
1 *1175:Q *360:8 39.2014 
2 *360:8 *360:12 16.5743 
3 *360:12 *939:A 38.5771 
4 *360:12 *1082:A0 23 
*END

*D_NET *361 0.00352373
*CONN
*I *1072:A0 I *D sky130_fd_sc_hd__mux2_1
*I *936:A I *D sky130_fd_sc_hd__or2b_1
*I *935:A2 I *D sky130_fd_sc_hd__a221oi_2
*I *1170:Q O *D sky130_fd_sc_hd__dfrtp_1
*CAP
1 *1072:A0 0.000335109
2 *936:A 0.000153406
3 *935:A2 5.62321e-05
4 *1170:Q 8.343e-05
5 *361:12 0.000723978
6 *361:8 0.00093288
7 *933:A *361:12 0.000441326
8 *935:A1 *935:A2 0.000102551
9 *935:A1 *936:A 4.44894e-05
10 *954:A *1072:A0 5.47983e-06
11 *1072:S *1072:A0 0.000151328
12 *1106:B *361:12 0.000155077
13 *126:265 *1072:A0 2.93985e-05
14 *127:8 *361:8 8.71559e-05
15 *214:12 *361:8 8.16713e-05
16 *214:12 *361:12 0.000115527
17 *239:22 *935:A2 2.46906e-05
18 *253:22 *361:8 0
19 *253:22 *361:12 0
*RES
1 *1170:Q *361:8 40.2579 
2 *361:8 *361:12 26.0614 
3 *361:12 *935:A2 24.5743 
4 *361:12 *936:A 25.4236 
5 *361:8 *1072:A0 43.8829 
*END

*D_NET *362 0.00351909
*CONN
*I *938:A2 I *D sky130_fd_sc_hd__o2111a_1
*I *935:B1 I *D sky130_fd_sc_hd__a221oi_2
*I *1074:A0 I *D sky130_fd_sc_hd__mux2_1
*I *1171:Q O *D sky130_fd_sc_hd__dfrtp_1
*CAP
1 *938:A2 0
2 *935:B1 0
3 *1074:A0 0
4 *1171:Q 0
5 *362:35 0.000199464
6 *362:27 0.000622663
7 *362:14 0.00039195
8 *362:4 0.000815148
9 *362:27 *938:B1 2.07484e-05
10 *362:35 *375:20 0.000231272
11 *362:35 *375:34 2.11066e-05
12 *938:A1 *362:35 7.91027e-05
13 *938:C1 *362:27 1.98624e-05
14 *1171:D *362:14 2.83509e-05
15 *1171:D *362:27 0.000100477
16 *108:10 *362:35 1.39734e-05
17 *205:10 *362:14 0.000453076
18 *239:22 *362:35 0.000141103
19 *324:81 *362:14 0.000380789
*RES
1 *1171:Q *362:4 23 
2 *362:4 *362:14 39.6529 
3 *362:14 *1074:A0 23 
4 *362:4 *362:27 7.70571 
5 *362:27 *362:35 34.8886 
6 *362:35 *935:B1 23 
7 *362:27 *938:A2 23 
*END

*D_NET *363 0.00283848
*CONN
*I *937:B_N I *D sky130_fd_sc_hd__or2b_1
*I *934:A_N I *D sky130_fd_sc_hd__and2b_1
*I *1076:A0 I *D sky130_fd_sc_hd__mux2_1
*I *1172:Q O *D sky130_fd_sc_hd__dfrtp_1
*CAP
1 *937:B_N 0
2 *934:A_N 0
3 *1076:A0 0
4 *1172:Q 0
5 *363:38 0.00032716
6 *363:21 0.000437851
7 *363:12 0.000657791
8 *363:4 0.000768482
9 *1188:RESET_B *363:12 6.15739e-05
10 *1188:RESET_B *363:21 2.80512e-05
11 *1188:RESET_B *363:38 0.0002263
12 *102:54 *363:38 0.000104094
13 *205:10 *363:38 1.01436e-05
14 *279:14 *363:12 0.000169674
15 *324:81 *363:38 4.73585e-05
*RES
1 *1172:Q *363:4 23 
2 *363:4 *363:12 39.0729 
3 *363:12 *1076:A0 23 
4 *363:4 *363:21 1.94714 
5 *363:21 *934:A_N 23 
6 *363:21 *363:38 36.7321 
7 *363:38 *937:B_N 23 
*END

*D_NET *364 0.00379683
*CONN
*I *948:A2 I *D sky130_fd_sc_hd__o21ai_1
*I *951:A2 I *D sky130_fd_sc_hd__a2111o_2
*I *1066:A0 I *D sky130_fd_sc_hd__mux2_1
*I *1167:Q O *D sky130_fd_sc_hd__dfrtp_1
*CAP
1 *948:A2 0.000159198
2 *951:A2 0.000370933
3 *1066:A0 0.000412469
4 *1167:Q 0.000476146
5 *364:17 0.000530131
6 *364:6 0.000888615
7 *948:A1 *948:A2 5.79559e-05
8 *951:B1 *951:A2 0.000100061
9 *951:C1 *951:A2 2.46906e-05
10 *951:D1 *951:A2 5.56356e-05
11 *1066:S *1066:A0 6.17437e-06
12 *1167:RESET_B *951:A2 1.12695e-05
13 *93:213 *951:A2 4.04176e-05
14 *121:10 *951:A2 0
15 *123:10 *948:A2 0.000132665
16 *123:10 *951:A2 0.000216874
17 *124:10 *951:A2 4.53056e-05
18 *124:55 *364:6 5.30008e-05
19 *241:72 *1066:A0 9.15307e-05
20 *256:471 *951:A2 0.000104341
21 *256:471 *364:6 1.94168e-05
*RES
1 *1167:Q *364:6 28.8621 
2 *364:6 *1066:A0 29.8357 
3 *364:6 *364:17 15 
4 *364:17 *951:A2 45.6643 
5 *364:17 *948:A2 41.5007 
*END

*D_NET *365 0.00209417
*CONN
*I *949:B I *D sky130_fd_sc_hd__xor2_1
*I *1068:A0 I *D sky130_fd_sc_hd__mux2_1
*I *1168:Q O *D sky130_fd_sc_hd__dfrtp_1
*CAP
1 *949:B 0
2 *1068:A0 0.000226432
3 *1168:Q 0.000293958
4 *365:12 0.000226432
5 *365:10 0.000293958
6 *365:10 *946:B 8.62876e-05
7 *365:10 *1225:A 1.83408e-05
8 *949:A *1068:A0 1.1258e-05
9 *1068:S *1068:A0 5.5792e-05
10 *1250:A *1068:A0 0.000193975
11 *93:213 *365:10 0.000261951
12 *275:14 *1068:A0 0.000322582
13 *325:50 *1068:A0 0.000103201
*RES
1 *1168:Q *365:10 43.6964 
2 *365:10 *365:12 15 
3 *365:12 *1068:A0 30.4571 
4 *365:12 *949:B 23 
*END

*D_NET *366 0.000645193
*CONN
*I *950:B I *D sky130_fd_sc_hd__xor2_1
*I *1212:A I *D sky130_fd_sc_hd__dlygate4sd3_1
*I *1169:Q O *D sky130_fd_sc_hd__dfrtp_1
*CAP
1 *950:B 8.06218e-05
2 *1212:A 0
3 *1169:Q 0.000180012
4 *366:6 0.000260634
5 *256:296 *366:6 0.000123924
*RES
1 *1169:Q *366:6 26.48 
2 *366:6 *1212:A 23 
3 *366:6 *950:B 24.5743 
*END

*D_NET *367 0.00388866
*CONN
*I *959:A2 I *D sky130_fd_sc_hd__a2111oi_1
*I *947:A2 I *D sky130_fd_sc_hd__a2111o_1
*I *944:A2 I *D sky130_fd_sc_hd__o21ai_1
*I *1060:A0 I *D sky130_fd_sc_hd__mux2_1
*I *1164:Q O *D sky130_fd_sc_hd__dfrtp_1
*CAP
1 *959:A2 0.000234125
2 *947:A2 5.95298e-05
3 *944:A2 3.44368e-05
4 *1060:A0 0
5 *1164:Q 0.000316745
6 *367:36 0.000380384
7 *367:23 0.000572383
8 *367:12 0.000212482
9 *367:6 0.000980443
10 *944:A2 *944:B1 0.00010018
11 *944:A1 *944:A2 5.67058e-05
12 *946:A *944:A2 4.6595e-05
13 *947:B1 *947:A2 5.71469e-05
14 *947:B1 *959:A2 8.48502e-06
15 *1164:RESET_B *367:6 2.56078e-05
16 *1164:RESET_B *367:12 1.97329e-05
17 *64:8 *367:23 8.62876e-05
18 *98:59 *367:36 2.34077e-05
19 *98:82 *944:A2 0.000128723
20 *98:82 *959:A2 0.000162237
21 *98:82 *367:36 0.000108227
22 *118:12 *367:23 0
23 *118:12 *367:36 0
24 *118:25 *367:23 2.64506e-05
25 *118:25 *367:36 6.7177e-06
26 *126:133 *367:12 3.20914e-05
27 *198:8 *367:12 0
28 *198:8 *367:23 0.000138727
29 *239:59 *367:12 0
30 *239:72 *367:12 1.19692e-05
31 *243:31 *367:23 0
32 *243:35 *367:23 0
33 *256:165 *367:6 5.88446e-05
*RES
1 *1164:Q *367:6 26.9564 
2 *367:6 *367:12 34.3707 
3 *367:12 *1060:A0 23 
4 *367:6 *367:23 22.6021 
5 *367:23 *944:A2 40.0507 
6 *367:23 *367:36 16.9057 
7 *367:36 *947:A2 24.7607 
8 *367:36 *959:A2 26.0036 
*END

*D_NET *368 0.00197377
*CONN
*I *945:B I *D sky130_fd_sc_hd__xor2_1
*I *1222:A I *D sky130_fd_sc_hd__dlygate4sd3_1
*I *1165:Q O *D sky130_fd_sc_hd__dfrtp_1
*CAP
1 *945:B 0.000153802
2 *1222:A 0.000243702
3 *1165:Q 5.29967e-05
4 *368:8 0.0004505
5 *945:A *945:B 1.32314e-05
6 *946:A *945:B 0.000139352
7 *1164:RESET_B *1222:A 0.000228909
8 *126:113 *945:B 0.000105062
9 *126:113 *368:8 2.95125e-05
10 *295:10 *1222:A 0.000115
11 *295:10 *368:8 8.62783e-05
12 *325:50 *945:B 0.000216712
13 *325:50 *368:8 0.000138718
*RES
1 *1165:Q *368:8 39.9057 
2 *368:8 *1222:A 43.3857 
3 *368:8 *945:B 42.5364 
*END

*D_NET *369 0.00178289
*CONN
*I *946:B I *D sky130_fd_sc_hd__xor2_1
*I *1225:A I *D sky130_fd_sc_hd__dlygate4sd3_1
*I *1166:Q O *D sky130_fd_sc_hd__dfrtp_1
*CAP
1 *946:B 0.000227245
2 *1225:A 0.000194675
3 *1166:Q 0.000196307
4 *369:8 0.000618227
5 *946:A *946:B 3.85196e-05
6 *65:10 *369:8 0.000140949
7 *93:112 *369:8 4.90891e-05
8 *93:213 *946:B 5.44006e-05
9 *93:213 *369:8 5.93278e-05
10 *253:58 *946:B 0
11 *253:58 *369:8 0
12 *298:8 *369:8 8.62876e-05
13 *337:6 *946:B 1.32314e-05
14 *365:10 *946:B 8.62876e-05
15 *365:10 *1225:A 1.83408e-05
*RES
1 *1166:Q *369:8 42.7229 
2 *369:8 *1225:A 41.48 
3 *369:8 *946:B 42.8264 
*END

*D_NET *370 0.00545927
*CONN
*I *1054:A0 I *D sky130_fd_sc_hd__mux2_1
*I *923:A I *D sky130_fd_sc_hd__inv_2
*I *931:A2 I *D sky130_fd_sc_hd__a221o_1
*I *1161:Q O *D sky130_fd_sc_hd__dfrtp_1
*CAP
1 *1054:A0 0
2 *923:A 0.000310879
3 *931:A2 0.000322782
4 *1161:Q 0
5 *370:46 0.000486471
6 *370:8 0.00134495
7 *370:4 0.00119776
8 *931:A2 *371:8 0.000231015
9 *931:A2 *371:18 7.3867e-05
10 *931:A1 *931:A2 0.000118426
11 *931:B1 *931:A2 0.000118426
12 *1161:CLK *923:A 8.89266e-05
13 *1161:CLK *931:A2 8.57485e-05
14 *61:8 *923:A 0
15 *98:144 *923:A 0
16 *99:47 *370:8 0.000501683
17 *256:12 *370:46 0.000153164
18 *256:16 *370:46 0.000138747
19 *262:12 *931:A2 5.25571e-05
20 *290:6 *370:46 0.00023387
21 *325:112 *923:A 0
*RES
1 *1161:Q *370:4 23 
2 *370:4 *370:8 25.15 
3 *370:8 *931:A2 45.8404 
4 *370:8 *923:A 43.8621 
5 *370:4 *370:46 38.4514 
6 *370:46 *1054:A0 23 
*END

*D_NET *371 0.00364273
*CONN
*I *1218:A I *D sky130_fd_sc_hd__dlygate4sd3_1
*I *927:B I *D sky130_fd_sc_hd__or2_1
*I *928:B I *D sky130_fd_sc_hd__nand2_1
*I *1162:Q O *D sky130_fd_sc_hd__dfrtp_1
*CAP
1 *1218:A 0
2 *927:B 0
3 *928:B 0
4 *1162:Q 0
5 *371:36 0.000145734
6 *371:18 0.00038785
7 *371:8 0.00107385
8 *371:4 0.000831736
9 *931:A1 *371:18 0.000182222
10 *931:A2 *371:8 0.000231015
11 *931:A2 *371:18 7.3867e-05
12 *1162:CLK *371:8 0.000186038
13 *1162:D *371:8 4.19071e-05
14 *1162:RESET_B *371:8 0.000134166
15 *101:8 *371:18 4.11274e-05
16 *126:177 *371:18 0.000137744
17 *256:12 *371:36 3.46013e-05
18 *256:16 *371:36 0.000140875
*RES
1 *1162:Q *371:4 23 
2 *371:4 *371:8 13.8579 
3 *371:8 *371:18 36.3593 
4 *371:18 *928:B 23 
5 *371:8 *927:B 23 
6 *371:4 *371:36 33.1071 
7 *371:36 *1218:A 23 
*END

*D_NET *372 0.00236635
*CONN
*I *1224:A I *D sky130_fd_sc_hd__dlygate4sd3_1
*I *930:B I *D sky130_fd_sc_hd__xor2_1
*I *1163:Q O *D sky130_fd_sc_hd__dfrtp_1
*CAP
1 *1224:A 0.000411956
2 *930:B 0
3 *1163:Q 0
4 *372:12 0.000372571
5 *372:4 0.000784527
6 *978:A *1224:A 0
7 *1058:A0 *1224:A 0.000225399
8 *1058:A1 *1224:A 0.0001164
9 *1058:S *1224:A 2.93845e-05
10 *1163:RESET_B *1224:A 8.75212e-05
11 *1163:RESET_B *372:12 6.42367e-05
12 *1164:RESET_B *1224:A 0
13 *1164:RESET_B *372:12 7.53384e-06
14 *32:10 *1224:A 8.82055e-05
15 *102:112 *372:12 3.67392e-05
16 *243:66 *372:12 0.000141879
*RES
1 *1163:Q *372:4 23 
2 *372:4 *372:12 37.1257 
3 *372:12 *930:B 23 
4 *372:4 *1224:A 32.6114 
*END

*D_NET *373 0.00335655
*CONN
*I *1122:A1 I *D sky130_fd_sc_hd__a21oi_1
*I *957:A I *D sky130_fd_sc_hd__inv_2
*I *955:B I *D sky130_fd_sc_hd__and3b_1
*I *1099:A I *D sky130_fd_sc_hd__nand2_2
*I *1186:Q O *D sky130_fd_sc_hd__dfrtp_1
*CAP
1 *1122:A1 0.000131851
2 *957:A 3.40974e-05
3 *955:B 0.000260953
4 *1099:A 0
5 *1186:Q 0.000482158
6 *373:24 0.000568477
7 *373:18 0.000454582
8 *373:12 0.000726971
9 *955:A_N *955:B 0.000116216
10 *955:A_N *373:24 4.21594e-06
11 *967:A1 *1122:A1 0.000184409
12 *1123:B *957:A 1.37232e-05
13 *125:10 *373:24 4.48671e-05
14 *128:8 *955:B 0.00018385
15 *128:8 *373:12 0
16 *128:8 *373:24 6.07611e-06
17 *129:10 *373:24 4.56219e-05
18 *235:8 *373:12 0
19 *239:113 *373:24 9.84794e-05
*RES
1 *1186:Q *373:12 44.1107 
2 *373:12 *373:18 16.8229 
3 *373:18 *373:24 19.9093 
4 *373:24 *1099:A 38 
5 *373:24 *955:B 44.8357 
6 *373:18 *957:A 23.8493 
7 *373:12 *1122:A1 40.0507 
*END

*D_NET *374 0.00370613
*CONN
*I *942:A I *D sky130_fd_sc_hd__and4_1
*I *1247:A I *D sky130_fd_sc_hd__dlygate4sd3_1
*I *964:A1 I *D sky130_fd_sc_hd__a22oi_1
*I *1187:Q O *D sky130_fd_sc_hd__dfrtp_1
*CAP
1 *942:A 0.000102214
2 *1247:A 0
3 *964:A1 0.000741393
4 *1187:Q 0
5 *374:25 0.000244575
6 *374:17 0.000420659
7 *374:4 0.000815263
8 *942:D *942:A 0.000191417
9 *964:B1 *964:A1 1.68412e-05
10 *1187:D *964:A1 0.000141347
11 *102:108 *374:25 0.00037141
12 *113:28 *942:A 0.000102944
13 *115:14 *964:A1 0.000199717
14 *115:14 *374:17 3.66555e-05
15 *134:26 *964:A1 0.000142783
16 *246:52 *942:A 2.66062e-05
17 *256:702 *374:25 5.22448e-05
18 *355:61 *374:25 0.000100061
*RES
1 *1187:Q *374:4 23 
2 *374:4 *964:A1 34.1236 
3 *374:4 *374:17 1.595 
4 *374:17 *374:25 36.1729 
5 *374:25 *1247:A 23 
6 *374:17 *942:A 26.0036 
*END

*D_NET *375 0.00492278
*CONN
*I *1248:A I *D sky130_fd_sc_hd__dlygate4sd3_1
*I *938:B1 I *D sky130_fd_sc_hd__o2111a_1
*I *964:B2 I *D sky130_fd_sc_hd__a22oi_1
*I *1188:Q O *D sky130_fd_sc_hd__dfrtp_1
*CAP
1 *1248:A 0.000108825
2 *938:B1 1.51374e-05
3 *964:B2 0
4 *1188:Q 0.000318788
5 *375:34 0.00107985
6 *375:20 0.00140242
7 *375:10 0.000735044
8 *933:A *1248:A 0.000229801
9 *938:A1 *375:20 8.16757e-06
10 *938:C1 *938:B1 5.56279e-05
11 *1188:RESET_B *375:10 6.87927e-05
12 *93:213 *375:34 3.50862e-06
13 *106:10 *375:20 0.000116408
14 *107:16 *375:10 5.3304e-05
15 *107:16 *375:20 0
16 *110:10 *375:20 5.46387e-05
17 *129:59 *375:34 2.26406e-05
18 *135:21 *375:34 3.32985e-05
19 *239:22 *375:20 1.21972e-05
20 *253:22 *375:10 0.000164282
21 *253:22 *375:20 0.00016693
22 *362:27 *938:B1 2.07484e-05
23 *362:35 *375:20 0.000231272
24 *362:35 *375:34 2.11066e-05
*RES
1 *1188:Q *375:10 43.2614 
2 *375:10 *375:20 37.2707 
3 *375:20 *375:34 34.1228 
4 *375:34 *964:B2 23 
5 *375:20 *938:B1 38.6214 
6 *375:10 *1248:A 40.5271 
*END

*D_NET *376 0.00131694
*CONN
*I *966:B1 I *D sky130_fd_sc_hd__o21ai_1
*I *1116:B1 I *D sky130_fd_sc_hd__o31a_1
*I *948:B1 I *D sky130_fd_sc_hd__o21ai_1
*I *1189:Q O *D sky130_fd_sc_hd__dfrtp_1
*CAP
1 *966:B1 9.86888e-05
2 *1116:B1 1.49804e-05
3 *948:B1 0.000188179
4 *1189:Q 0
5 *376:8 0.000271968
6 *376:4 0.000167497
7 *948:A1 *948:B1 5.79559e-05
8 *1116:A2 *948:B1 4.2812e-06
9 *1116:A2 *1116:B1 5.50106e-05
10 *1116:A2 *376:8 2.16985e-05
11 *93:213 *948:B1 0
12 *93:213 *376:8 0
13 *123:10 *948:B1 0
14 *124:14 *948:B1 0.0001619
15 *130:10 *376:8 8.71559e-05
16 *130:18 *966:B1 6.17437e-06
17 *138:8 *966:B1 5.48288e-06
18 *253:22 *376:8 0.000112303
19 *253:44 *948:B1 8.65413e-06
20 *253:44 *1116:B1 5.50106e-05
*RES
1 *1189:Q *376:4 23 
2 *376:4 *376:8 16.9057 
3 *376:8 *948:B1 41.5836 
4 *376:8 *1116:B1 38.6214 
5 *376:4 *966:B1 24.8229 
*END

*D_NET *377 0.004033
*CONN
*I *960:A I *D sky130_fd_sc_hd__inv_2
*I *1119:B1 I *D sky130_fd_sc_hd__o31a_1
*I *944:B1 I *D sky130_fd_sc_hd__o21ai_1
*I *1190:Q O *D sky130_fd_sc_hd__dfrtp_1
*CAP
1 *960:A 4.9151e-05
2 *1119:B1 4.0654e-05
3 *944:B1 0.000299628
4 *1190:Q 0.000287491
5 *377:27 0.000518576
6 *377:8 0.00101589
7 *944:A1 *944:B1 2.18506e-05
8 *944:A2 *944:B1 0.00010018
9 *946:A *944:B1 0.000271476
10 *952:B *960:A 9.84851e-05
11 *1119:A3 *1119:B1 9.75779e-05
12 *88:10 *377:27 8.57485e-05
13 *99:69 *377:8 0.000192123
14 *116:18 *960:A 8.43466e-05
15 *116:18 *1119:B1 0.000139352
16 *116:24 *377:27 1.22803e-05
17 *118:12 *944:B1 6.61762e-05
18 *132:10 *377:27 0.000171796
19 *137:63 *960:A 0.000100733
20 *137:63 *1119:B1 2.18409e-05
21 *239:55 *377:27 0.000222379
22 *239:59 *944:B1 0.000111302
23 *239:59 *377:27 2.39569e-05
*RES
1 *1190:Q *377:8 41.9564 
2 *377:8 *944:B1 46.0786 
3 *377:8 *377:27 25.0671 
4 *377:27 *1119:B1 24.5743 
5 *377:27 *960:A 25.0507 
*END

*D_NET *378 0.000120822
*CONN
*I *924:A I *D sky130_fd_sc_hd__inv_2
*I *1191:Q O *D sky130_fd_sc_hd__dfrtp_1
*CAP
1 *924:A 4.42669e-05
2 *1191:Q 4.42669e-05
3 *97:8 *924:A 3.22879e-05
*RES
1 *1191:Q *924:A 47.1186 
*END
