*SPEF "ieee 1481-1999"
*DESIGN "top"
*DATE "11:11:11 Fri 11 11, 1111"
*VENDOR "OpenRCX"
*PROGRAM "Parallel Extraction"
*VERSION "1.0"
*DESIGN_FLOW "NAME_SCOPE LOCAL" "PIN_CAP NONE"
*DIVIDER /
*DELIMITER :
*BUS_DELIMITER []
*T_UNIT 1 NS
*C_UNIT 1 PF
*R_UNIT 1 OHM
*L_UNIT 1 HENRY

*NAME_MAP
*3 clk
*4 i_valid
*5 i_value0[0]
*6 i_value0[1]
*7 i_value0[2]
*8 i_value1[0]
*9 i_value1[1]
*10 i_value1[2]
*11 i_value2[0]
*12 i_value2[1]
*13 i_value2[2]
*14 i_value3[0]
*15 i_value3[1]
*16 i_value3[2]
*17 i_value4[0]
*18 i_value4[1]
*19 i_value4[2]
*20 o_bucket[0]
*21 o_bucket[1]
*22 o_bucket[2]
*23 o_index[0]
*24 o_index[1]
*25 o_index[2]
*26 o_valid
*27 rst_n
*28 _000_
*29 _001_
*30 _002_
*31 _003_
*32 _004_
*33 _005_
*34 _006_
*35 _007_
*36 _008_
*37 _009_
*38 _010_
*39 _011_
*40 _012_
*41 _013_
*42 _014_
*43 _015_
*44 _016_
*45 _017_
*46 _018_
*47 _019_
*48 _020_
*49 _021_
*50 _022_
*51 _023_
*52 _024_
*53 _025_
*54 _026_
*55 _027_
*56 _028_
*57 _029_
*58 _030_
*59 _031_
*60 _032_
*61 _033_
*62 _034_
*63 _035_
*64 _036_
*65 _037_
*66 _038_
*67 _039_
*68 _040_
*69 _041_
*70 _042_
*71 _043_
*72 _044_
*73 _045_
*74 _046_
*75 _047_
*76 _048_
*77 _049_
*78 _050_
*79 _051_
*80 _052_
*81 _053_
*82 _054_
*83 _055_
*84 _056_
*85 _057_
*86 _058_
*87 _059_
*88 _060_
*89 _061_
*90 _062_
*91 _063_
*92 _064_
*93 _065_
*94 _066_
*95 _067_
*96 _068_
*97 _069_
*98 _070_
*99 _071_
*100 _072_
*101 _073_
*102 _074_
*103 _075_
*104 _076_
*105 _077_
*106 _078_
*107 _079_
*108 _080_
*109 _081_
*110 _082_
*111 _083_
*112 _084_
*113 _085_
*114 _086_
*115 _087_
*116 _088_
*117 _089_
*118 _090_
*119 _091_
*120 _092_
*121 _093_
*122 _094_
*123 _095_
*124 _096_
*125 _097_
*126 _098_
*127 _099_
*128 _100_
*129 _101_
*130 _102_
*131 _103_
*132 _104_
*133 _105_
*134 _106_
*135 _107_
*136 _108_
*137 _109_
*138 _110_
*139 _111_
*140 _112_
*141 _113_
*142 _114_
*143 _115_
*144 _116_
*145 _117_
*146 _118_
*147 _119_
*148 _120_
*149 _121_
*150 _122_
*151 _123_
*152 _124_
*153 _125_
*154 _126_
*155 _127_
*156 _128_
*157 _129_
*158 _130_
*159 _131_
*160 _132_
*161 _133_
*162 _134_
*163 _135_
*164 _136_
*165 _137_
*166 _138_
*167 _139_
*168 _140_
*169 _141_
*170 _142_
*171 _143_
*172 _144_
*173 _145_
*174 _146_
*175 _147_
*176 _148_
*177 _149_
*178 _150_
*179 _151_
*180 _152_
*181 _153_
*182 _154_
*183 _155_
*184 _156_
*185 _157_
*186 _158_
*187 _159_
*188 _160_
*189 _161_
*190 _162_
*191 _163_
*192 _164_
*193 _165_
*194 _166_
*195 _167_
*196 _168_
*197 _169_
*198 _170_
*199 _171_
*200 _172_
*201 _173_
*202 _174_
*203 _175_
*204 _176_
*205 _177_
*206 _178_
*207 _179_
*208 _180_
*209 _181_
*210 _182_
*211 _183_
*212 _184_
*213 _185_
*214 _186_
*215 _187_
*216 _188_
*217 _189_
*218 _190_
*219 _191_
*220 _192_
*221 _193_
*222 _194_
*223 _195_
*224 _196_
*225 _197_
*226 _198_
*227 _199_
*228 _200_
*229 _201_
*230 _202_
*231 _203_
*232 _204_
*233 _205_
*234 _206_
*235 _207_
*236 _208_
*237 _209_
*238 _210_
*239 clknet_0_clk
*240 clknet_3_0__leaf_clk
*241 clknet_3_1__leaf_clk
*242 clknet_3_2__leaf_clk
*243 clknet_3_3__leaf_clk
*244 clknet_3_4__leaf_clk
*245 clknet_3_5__leaf_clk
*246 clknet_3_6__leaf_clk
*247 clknet_3_7__leaf_clk
*248 net1
*249 net10
*250 net11
*251 net12
*252 net13
*253 net14
*254 net15
*255 net16
*256 net17
*257 net18
*258 net19
*259 net2
*260 net20
*261 net21
*262 net22
*263 net23
*264 net24
*265 net25
*266 net26
*267 net27
*268 net28
*269 net29
*270 net3
*271 net30
*272 net31
*273 net32
*274 net33
*275 net34
*276 net35
*277 net36
*278 net37
*279 net38
*280 net39
*281 net4
*282 net40
*283 net41
*284 net42
*285 net43
*286 net44
*287 net45
*288 net46
*289 net47
*290 net48
*291 net49
*292 net5
*293 net50
*294 net51
*295 net52
*296 net53
*297 net54
*298 net55
*299 net56
*300 net57
*301 net58
*302 net59
*303 net6
*304 net60
*305 net61
*306 net62
*307 net63
*308 net64
*309 net65
*310 net66
*311 net67
*312 net68
*313 net69
*314 net7
*315 net70
*316 net71
*317 net72
*318 net73
*319 net8
*320 net9
*321 u_am0\.b_i\[0\]
*322 u_am0\.b_i\[1\]
*323 u_am0\.b_i\[2\]
*324 u_am0\.i_index\[0\]
*325 u_am0\.i_index\[1\]
*326 u_am0\.i_index\[2\]
*327 u_am0\.max\[0\]
*328 u_am0\.max\[1\]
*329 u_am0\.max\[2\]
*330 u_am1\.b_i\[0\]
*331 u_am1\.b_i\[1\]
*332 u_am1\.b_i\[2\]
*333 u_am1\.max\[0\]
*334 u_am1\.max\[1\]
*335 u_am1\.max\[2\]
*336 u_am2\.b_i\[0\]
*337 u_am2\.b_i\[1\]
*338 u_am2\.b_i\[2\]
*339 u_am2\.max\[0\]
*340 u_am2\.max\[1\]
*341 u_am2\.max\[2\]
*342 u_am3\.b_i\[0\]
*343 u_am3\.b_i\[1\]
*344 u_am3\.b_i\[2\]
*345 u_am3\.max\[0\]
*346 u_am3\.max\[1\]
*347 u_am3\.max\[2\]
*348 u_am4\.b_i\[0\]
*349 u_am4\.b_i\[1\]
*350 u_am4\.b_i\[2\]
*351 u_am4\.max\[0\]
*352 u_am4\.max\[1\]
*353 u_am4\.max\[2\]
*354 u_control\.o_start_sort
*355 u_sort\.bucket_counter\[0\]
*356 u_sort\.bucket_counter\[1\]
*357 u_sort\.bucket_counter\[2\]
*358 u_sort\.bucket_reg\[0\]\[0\]
*359 u_sort\.bucket_reg\[0\]\[1\]
*360 u_sort\.bucket_reg\[0\]\[2\]
*361 u_sort\.bucket_reg\[1\]\[0\]
*362 u_sort\.bucket_reg\[1\]\[1\]
*363 u_sort\.bucket_reg\[1\]\[2\]
*364 u_sort\.bucket_reg\[2\]\[0\]
*365 u_sort\.bucket_reg\[2\]\[1\]
*366 u_sort\.bucket_reg\[2\]\[2\]
*367 u_sort\.bucket_reg\[3\]\[0\]
*368 u_sort\.bucket_reg\[3\]\[1\]
*369 u_sort\.bucket_reg\[3\]\[2\]
*370 u_sort\.bucket_reg\[4\]\[0\]
*371 u_sort\.bucket_reg\[4\]\[1\]
*372 u_sort\.bucket_reg\[4\]\[2\]
*373 u_sort\.busy
*374 u_sort\.valid_reg\[0\]
*375 u_sort\.valid_reg\[1\]
*376 u_sort\.valid_reg\[2\]
*377 u_sort\.valid_reg\[3\]
*378 u_sort\.valid_reg\[4\]
*379 FILLER_0_0_102
*380 FILLER_0_0_110
*381 FILLER_0_0_119
*382 FILLER_0_0_123
*383 FILLER_0_0_138
*384 FILLER_0_0_144
*385 FILLER_0_0_156
*386 FILLER_0_0_160
*387 FILLER_0_0_169
*388 FILLER_0_0_23
*389 FILLER_0_0_27
*390 FILLER_0_0_29
*391 FILLER_0_0_45
*392 FILLER_0_0_6
*393 FILLER_0_0_60
*394 FILLER_0_0_64
*395 FILLER_0_0_73
*396 FILLER_0_0_82
*397 FILLER_0_0_85
*398 FILLER_0_0_90
*399 FILLER_0_10_102
*400 FILLER_0_10_110
*401 FILLER_0_10_119
*402 FILLER_0_10_131
*403 FILLER_0_10_139
*404 FILLER_0_10_141
*405 FILLER_0_10_145
*406 FILLER_0_10_154
*407 FILLER_0_10_166
*408 FILLER_0_10_174
*409 FILLER_0_10_23
*410 FILLER_0_10_70
*411 FILLER_0_10_82
*412 FILLER_0_11_110
*413 FILLER_0_11_113
*414 FILLER_0_11_121
*415 FILLER_0_11_126
*416 FILLER_0_11_134
*417 FILLER_0_11_15
*418 FILLER_0_11_162
*419 FILLER_0_11_169
*420 FILLER_0_11_3
*421 FILLER_0_11_48
*422 FILLER_0_11_57
*423 FILLER_0_11_69
*424 FILLER_0_11_77
*425 FILLER_0_11_98
*426 FILLER_0_12_134
*427 FILLER_0_12_139
*428 FILLER_0_12_15
*429 FILLER_0_12_161
*430 FILLER_0_12_173
*431 FILLER_0_12_27
*432 FILLER_0_12_29
*433 FILLER_0_12_3
*434 FILLER_0_12_71
*435 FILLER_0_12_82
*436 FILLER_0_12_85
*437 FILLER_0_12_91
*438 FILLER_0_12_97
*439 FILLER_0_13_111
*440 FILLER_0_13_130
*441 FILLER_0_13_138
*442 FILLER_0_13_15
*443 FILLER_0_13_159
*444 FILLER_0_13_167
*445 FILLER_0_13_169
*446 FILLER_0_13_19
*447 FILLER_0_13_3
*448 FILLER_0_13_40
*449 FILLER_0_13_46
*450 FILLER_0_13_82
*451 FILLER_0_13_99
*452 FILLER_0_14_100
*453 FILLER_0_14_134
*454 FILLER_0_14_141
*455 FILLER_0_14_145
*456 FILLER_0_14_157
*457 FILLER_0_14_38
*458 FILLER_0_14_50
*459 FILLER_0_14_6
*460 FILLER_0_14_62
*461 FILLER_0_14_69
*462 FILLER_0_14_85
*463 FILLER_0_15_105
*464 FILLER_0_15_136
*465 FILLER_0_15_148
*466 FILLER_0_15_15
*467 FILLER_0_15_160
*468 FILLER_0_15_169
*469 FILLER_0_15_19
*470 FILLER_0_15_3
*471 FILLER_0_15_55
*472 FILLER_0_15_62
*473 FILLER_0_15_72
*474 FILLER_0_16_100
*475 FILLER_0_16_112
*476 FILLER_0_16_124
*477 FILLER_0_16_136
*478 FILLER_0_16_141
*479 FILLER_0_16_15
*480 FILLER_0_16_165
*481 FILLER_0_16_173
*482 FILLER_0_16_23
*483 FILLER_0_16_27
*484 FILLER_0_16_29
*485 FILLER_0_16_3
*486 FILLER_0_16_41
*487 FILLER_0_16_49
*488 FILLER_0_16_74
*489 FILLER_0_16_82
*490 FILLER_0_17_113
*491 FILLER_0_17_125
*492 FILLER_0_17_158
*493 FILLER_0_17_167
*494 FILLER_0_17_169
*495 FILLER_0_17_20
*496 FILLER_0_17_3
*497 FILLER_0_17_32
*498 FILLER_0_17_44
*499 FILLER_0_17_60
*500 FILLER_0_17_7
*501 FILLER_0_17_72
*502 FILLER_0_17_84
*503 FILLER_0_18_101
*504 FILLER_0_18_120
*505 FILLER_0_18_128
*506 FILLER_0_18_138
*507 FILLER_0_18_156
*508 FILLER_0_18_165
*509 FILLER_0_18_23
*510 FILLER_0_18_27
*511 FILLER_0_18_60
*512 FILLER_0_18_68
*513 FILLER_0_18_79
*514 FILLER_0_18_83
*515 FILLER_0_18_85
*516 FILLER_0_18_93
*517 FILLER_0_19_169
*518 FILLER_0_19_3
*519 FILLER_0_19_57
*520 FILLER_0_19_69
*521 FILLER_0_19_7
*522 FILLER_0_19_77
*523 FILLER_0_19_81
*524 FILLER_0_1_133
*525 FILLER_0_1_154
*526 FILLER_0_1_166
*527 FILLER_0_1_169
*528 FILLER_0_1_37
*529 FILLER_0_1_54
*530 FILLER_0_1_66
*531 FILLER_0_20_121
*532 FILLER_0_20_133
*533 FILLER_0_20_139
*534 FILLER_0_20_17
*535 FILLER_0_20_170
*536 FILLER_0_20_21
*537 FILLER_0_20_27
*538 FILLER_0_20_38
*539 FILLER_0_20_44
*540 FILLER_0_20_83
*541 FILLER_0_20_89
*542 FILLER_0_20_9
*543 FILLER_0_20_99
*544 FILLER_0_21_103
*545 FILLER_0_21_11
*546 FILLER_0_21_113
*547 FILLER_0_21_118
*548 FILLER_0_21_129
*549 FILLER_0_21_150
*550 FILLER_0_21_164
*551 FILLER_0_21_169
*552 FILLER_0_21_3
*553 FILLER_0_21_41
*554 FILLER_0_21_51
*555 FILLER_0_21_55
*556 FILLER_0_21_63
*557 FILLER_0_21_69
*558 FILLER_0_21_86
*559 FILLER_0_21_90
*560 FILLER_0_21_95
*561 FILLER_0_22_128
*562 FILLER_0_22_136
*563 FILLER_0_22_15
*564 FILLER_0_22_150
*565 FILLER_0_22_161
*566 FILLER_0_22_173
*567 FILLER_0_22_23
*568 FILLER_0_22_3
*569 FILLER_0_22_49
*570 FILLER_0_22_56
*571 FILLER_0_22_85
*572 FILLER_0_23_102
*573 FILLER_0_23_110
*574 FILLER_0_23_113
*575 FILLER_0_23_122
*576 FILLER_0_23_14
*577 FILLER_0_23_161
*578 FILLER_0_23_167
*579 FILLER_0_23_169
*580 FILLER_0_23_24
*581 FILLER_0_23_3
*582 FILLER_0_23_65
*583 FILLER_0_23_77
*584 FILLER_0_23_86
*585 FILLER_0_23_98
*586 FILLER_0_24_105
*587 FILLER_0_24_133
*588 FILLER_0_24_139
*589 FILLER_0_24_150
*590 FILLER_0_24_25
*591 FILLER_0_24_3
*592 FILLER_0_24_37
*593 FILLER_0_24_70
*594 FILLER_0_24_82
*595 FILLER_0_24_85
*596 FILLER_0_24_93
*597 FILLER_0_25_106
*598 FILLER_0_25_113
*599 FILLER_0_25_121
*600 FILLER_0_25_129
*601 FILLER_0_25_167
*602 FILLER_0_25_169
*603 FILLER_0_25_21
*604 FILLER_0_25_33
*605 FILLER_0_25_43
*606 FILLER_0_25_48
*607 FILLER_0_25_52
*608 FILLER_0_25_77
*609 FILLER_0_25_9
*610 FILLER_0_26_118
*611 FILLER_0_26_130
*612 FILLER_0_26_134
*613 FILLER_0_26_138
*614 FILLER_0_26_15
*615 FILLER_0_26_152
*616 FILLER_0_26_164
*617 FILLER_0_26_23
*618 FILLER_0_26_3
*619 FILLER_0_26_57
*620 FILLER_0_26_69
*621 FILLER_0_26_81
*622 FILLER_0_26_85
*623 FILLER_0_26_97
*624 FILLER_0_27_113
*625 FILLER_0_27_121
*626 FILLER_0_27_127
*627 FILLER_0_27_141
*628 FILLER_0_27_15
*629 FILLER_0_27_164
*630 FILLER_0_27_169
*631 FILLER_0_27_27
*632 FILLER_0_27_3
*633 FILLER_0_27_31
*634 FILLER_0_27_52
*635 FILLER_0_27_66
*636 FILLER_0_27_78
*637 FILLER_0_27_82
*638 FILLER_0_28_105
*639 FILLER_0_28_137
*640 FILLER_0_28_141
*641 FILLER_0_28_147
*642 FILLER_0_28_168
*643 FILLER_0_28_174
*644 FILLER_0_28_24
*645 FILLER_0_28_3
*646 FILLER_0_29_100
*647 FILLER_0_29_107
*648 FILLER_0_29_111
*649 FILLER_0_29_113
*650 FILLER_0_29_12
*651 FILLER_0_29_125
*652 FILLER_0_29_133
*653 FILLER_0_29_139
*654 FILLER_0_29_149
*655 FILLER_0_29_156
*656 FILLER_0_29_24
*657 FILLER_0_29_29
*658 FILLER_0_29_37
*659 FILLER_0_29_41
*660 FILLER_0_29_51
*661 FILLER_0_29_55
*662 FILLER_0_29_64
*663 FILLER_0_29_82
*664 FILLER_0_29_85
*665 FILLER_0_29_91
*666 FILLER_0_2_106
*667 FILLER_0_2_114
*668 FILLER_0_2_120
*669 FILLER_0_2_15
*670 FILLER_0_2_161
*671 FILLER_0_2_173
*672 FILLER_0_2_23
*673 FILLER_0_2_3
*674 FILLER_0_2_69
*675 FILLER_0_2_79
*676 FILLER_0_2_95
*677 FILLER_0_3_141
*678 FILLER_0_3_15
*679 FILLER_0_3_151
*680 FILLER_0_3_161
*681 FILLER_0_3_167
*682 FILLER_0_3_169
*683 FILLER_0_3_27
*684 FILLER_0_3_3
*685 FILLER_0_3_42
*686 FILLER_0_3_54
*687 FILLER_0_3_57
*688 FILLER_0_3_83
*689 FILLER_0_4_11
*690 FILLER_0_4_123
*691 FILLER_0_4_131
*692 FILLER_0_4_136
*693 FILLER_0_4_141
*694 FILLER_0_4_149
*695 FILLER_0_4_154
*696 FILLER_0_4_166
*697 FILLER_0_4_174
*698 FILLER_0_4_19
*699 FILLER_0_4_3
*700 FILLER_0_4_37
*701 FILLER_0_4_55
*702 FILLER_0_4_79
*703 FILLER_0_4_83
*704 FILLER_0_4_85
*705 FILLER_0_4_91
*706 FILLER_0_5_122
*707 FILLER_0_5_156
*708 FILLER_0_5_169
*709 FILLER_0_5_26
*710 FILLER_0_5_3
*711 FILLER_0_5_49
*712 FILLER_0_5_55
*713 FILLER_0_5_57
*714 FILLER_0_5_65
*715 FILLER_0_5_79
*716 FILLER_0_5_91
*717 FILLER_0_6_100
*718 FILLER_0_6_121
*719 FILLER_0_6_131
*720 FILLER_0_6_139
*721 FILLER_0_6_141
*722 FILLER_0_6_15
*723 FILLER_0_6_153
*724 FILLER_0_6_165
*725 FILLER_0_6_173
*726 FILLER_0_6_19
*727 FILLER_0_6_27
*728 FILLER_0_6_3
*729 FILLER_0_6_32
*730 FILLER_0_6_40
*731 FILLER_0_6_94
*732 FILLER_0_7_101
*733 FILLER_0_7_105
*734 FILLER_0_7_113
*735 FILLER_0_7_12
*736 FILLER_0_7_142
*737 FILLER_0_7_148
*738 FILLER_0_7_160
*739 FILLER_0_7_169
*740 FILLER_0_7_20
*741 FILLER_0_7_38
*742 FILLER_0_7_44
*743 FILLER_0_7_54
*744 FILLER_0_7_57
*745 FILLER_0_8_159
*746 FILLER_0_8_169
*747 FILLER_0_8_26
*748 FILLER_0_8_40
*749 FILLER_0_8_72
*750 FILLER_0_8_96
*751 FILLER_0_9_105
*752 FILLER_0_9_11
*753 FILLER_0_9_111
*754 FILLER_0_9_113
*755 FILLER_0_9_125
*756 FILLER_0_9_167
*757 FILLER_0_9_169
*758 FILLER_0_9_3
*759 FILLER_0_9_53
*760 FILLER_0_9_72
*761 FILLER_0_9_81
*762 FILLER_0_9_93
*763 PHY_0
*764 PHY_1
*765 PHY_10
*766 PHY_11
*767 PHY_12
*768 PHY_13
*769 PHY_14
*770 PHY_15
*771 PHY_16
*772 PHY_17
*773 PHY_18
*774 PHY_19
*775 PHY_2
*776 PHY_20
*777 PHY_21
*778 PHY_22
*779 PHY_23
*780 PHY_24
*781 PHY_25
*782 PHY_26
*783 PHY_27
*784 PHY_28
*785 PHY_29
*786 PHY_3
*787 PHY_30
*788 PHY_31
*789 PHY_32
*790 PHY_33
*791 PHY_34
*792 PHY_35
*793 PHY_36
*794 PHY_37
*795 PHY_38
*796 PHY_39
*797 PHY_4
*798 PHY_40
*799 PHY_41
*800 PHY_42
*801 PHY_43
*802 PHY_44
*803 PHY_45
*804 PHY_46
*805 PHY_47
*806 PHY_48
*807 PHY_49
*808 PHY_5
*809 PHY_50
*810 PHY_51
*811 PHY_52
*812 PHY_53
*813 PHY_54
*814 PHY_55
*815 PHY_56
*816 PHY_57
*817 PHY_58
*818 PHY_59
*819 PHY_6
*820 PHY_7
*821 PHY_8
*822 PHY_9
*823 TAP_100
*824 TAP_101
*825 TAP_102
*826 TAP_103
*827 TAP_104
*828 TAP_105
*829 TAP_106
*830 TAP_107
*831 TAP_108
*832 TAP_109
*833 TAP_110
*834 TAP_111
*835 TAP_112
*836 TAP_113
*837 TAP_114
*838 TAP_115
*839 TAP_116
*840 TAP_117
*841 TAP_118
*842 TAP_119
*843 TAP_120
*844 TAP_121
*845 TAP_122
*846 TAP_123
*847 TAP_124
*848 TAP_125
*849 TAP_126
*850 TAP_127
*851 TAP_128
*852 TAP_129
*853 TAP_130
*854 TAP_131
*855 TAP_132
*856 TAP_133
*857 TAP_134
*858 TAP_135
*859 TAP_136
*860 TAP_137
*861 TAP_138
*862 TAP_139
*863 TAP_140
*864 TAP_141
*865 TAP_142
*866 TAP_143
*867 TAP_144
*868 TAP_145
*869 TAP_146
*870 TAP_147
*871 TAP_148
*872 TAP_149
*873 TAP_150
*874 TAP_151
*875 TAP_152
*876 TAP_153
*877 TAP_154
*878 TAP_155
*879 TAP_60
*880 TAP_61
*881 TAP_62
*882 TAP_63
*883 TAP_64
*884 TAP_65
*885 TAP_66
*886 TAP_67
*887 TAP_68
*888 TAP_69
*889 TAP_70
*890 TAP_71
*891 TAP_72
*892 TAP_73
*893 TAP_74
*894 TAP_75
*895 TAP_76
*896 TAP_77
*897 TAP_78
*898 TAP_79
*899 TAP_80
*900 TAP_81
*901 TAP_82
*902 TAP_83
*903 TAP_84
*904 TAP_85
*905 TAP_86
*906 TAP_87
*907 TAP_88
*908 TAP_89
*909 TAP_90
*910 TAP_91
*911 TAP_92
*912 TAP_93
*913 TAP_94
*914 TAP_95
*915 TAP_96
*916 TAP_97
*917 TAP_98
*918 TAP_99
*919 _211_
*920 _212_
*921 _213_
*922 _214_
*923 _215_
*924 _216_
*925 _217_
*926 _218_
*927 _219_
*928 _220_
*929 _221_
*930 _222_
*931 _223_
*932 _224_
*933 _225_
*934 _226_
*935 _227_
*936 _228_
*937 _229_
*938 _230_
*939 _231_
*940 _232_
*941 _233_
*942 _234_
*943 _235_
*944 _236_
*945 _237_
*946 _238_
*947 _239_
*948 _240_
*949 _241_
*950 _242_
*951 _243_
*952 _244_
*953 _245_
*954 _246_
*955 _247_
*956 _248_
*957 _249_
*958 _250_
*959 _251_
*960 _252_
*961 _253_
*962 _254_
*963 _255_
*964 _256_
*965 _257_
*966 _258_
*967 _259_
*968 _260_
*969 _261_
*970 _262_
*971 _263_
*972 _264_
*973 _265_
*974 _266_
*975 _267_
*976 _268_
*977 _269_
*978 _270_
*979 _271_
*980 _272_
*981 _273_
*982 _274_
*983 _275_
*984 _276_
*985 _277_
*986 _278_
*987 _279_
*988 _280_
*989 _281_
*990 _282_
*991 _283_
*992 _284_
*993 _285_
*994 _286_
*995 _287_
*996 _288_
*997 _289_
*998 _290_
*999 _291_
*1000 _292_
*1001 _293_
*1002 _294_
*1003 _295_
*1004 _296_
*1005 _297_
*1006 _298_
*1007 _299_
*1008 _300_
*1009 _301_
*1010 _302_
*1011 _303_
*1012 _304_
*1013 _305_
*1014 _306_
*1015 _307_
*1016 _308_
*1017 _309_
*1018 _310_
*1019 _311_
*1020 _312_
*1021 _313_
*1022 _314_
*1023 _315_
*1024 _316_
*1025 _317_
*1026 _318_
*1027 _319_
*1028 _320_
*1029 _321_
*1030 _322_
*1031 _323_
*1032 _324_
*1033 _325_
*1034 _326_
*1035 _327_
*1036 _328_
*1037 _329_
*1038 _330_
*1039 _331_
*1040 _332_
*1041 _333_
*1042 _334_
*1043 _335_
*1044 _336_
*1045 _337_
*1046 _338_
*1047 _339_
*1048 _340_
*1049 _341_
*1050 _342_
*1051 _343_
*1052 _344_
*1053 _345_
*1054 _346_
*1055 _347_
*1056 _348_
*1057 _349_
*1058 _350_
*1059 _351_
*1060 _352_
*1061 _353_
*1062 _354_
*1063 _355_
*1064 _356_
*1065 _357_
*1066 _358_
*1067 _359_
*1068 _360_
*1069 _361_
*1070 _362_
*1071 _363_
*1072 _364_
*1073 _365_
*1074 _366_
*1075 _367_
*1076 _368_
*1077 _369_
*1078 _370_
*1079 _371_
*1080 _372_
*1081 _373_
*1082 _374_
*1083 _375_
*1084 _376_
*1085 _377_
*1086 _378_
*1087 _379_
*1088 _380_
*1089 _381_
*1090 _382_
*1091 _383_
*1092 _384_
*1093 _385_
*1094 _386_
*1095 _387_
*1096 _388_
*1097 _389_
*1098 _390_
*1099 _391_
*1100 _392_
*1101 _393_
*1102 _394_
*1103 _395_
*1104 _396_
*1105 _397_
*1106 _398_
*1107 _399_
*1108 _400_
*1109 _401_
*1110 _402_
*1111 _403_
*1112 _404_
*1113 _405_
*1114 _406_
*1115 _407_
*1116 _408_
*1117 _409_
*1118 _410_
*1119 _411_
*1120 _412_
*1121 _413_
*1122 _414_
*1123 _415_
*1124 _416_
*1125 _417_
*1126 _418_
*1127 _419_
*1128 _420_
*1129 _421_
*1130 _422_
*1131 _423_
*1132 _424_
*1133 _425_
*1134 _426_
*1135 _427_
*1136 _428_
*1137 _429_
*1138 _430_
*1139 _431_
*1140 _432_
*1141 _433_
*1142 _434_
*1143 _435_
*1144 _436_
*1145 _437_
*1146 _438_
*1147 _439_
*1148 _440_
*1149 _441_
*1150 _442_
*1151 _443_
*1152 _444_
*1153 _445_
*1154 _446_
*1155 _447_
*1156 _448_
*1157 _449_
*1158 _450_
*1159 _451_
*1160 _452_
*1161 _453_
*1162 _454_
*1163 _455_
*1164 _456_
*1165 _457_
*1166 _458_
*1167 _459_
*1168 _460_
*1169 _461_
*1170 _462_
*1171 _463_
*1172 _464_
*1173 _465_
*1174 _466_
*1175 _467_
*1176 _468_
*1177 _469_
*1178 _470_
*1179 _471_
*1180 _472_
*1181 _473_
*1182 _474_
*1183 _475_
*1184 _476_
*1185 _477_
*1186 _478_
*1187 _479_
*1188 _480_
*1189 _481_
*1190 _482_
*1191 _483_
*1192 _484_
*1193 _485_
*1194 _486_
*1195 clkbuf_0_clk
*1196 clkbuf_3_0__f_clk
*1197 clkbuf_3_1__f_clk
*1198 clkbuf_3_2__f_clk
*1199 clkbuf_3_3__f_clk
*1200 clkbuf_3_4__f_clk
*1201 clkbuf_3_5__f_clk
*1202 clkbuf_3_6__f_clk
*1203 clkbuf_3_7__f_clk
*1204 hold1
*1205 hold10
*1206 hold11
*1207 hold12
*1208 hold13
*1209 hold14
*1210 hold15
*1211 hold16
*1212 hold17
*1213 hold18
*1214 hold19
*1215 hold2
*1216 hold20
*1217 hold21
*1218 hold22
*1219 hold23
*1220 hold24
*1221 hold25
*1222 hold26
*1223 hold27
*1224 hold28
*1225 hold29
*1226 hold3
*1227 hold30
*1228 hold31
*1229 hold32
*1230 hold33
*1231 hold34
*1232 hold35
*1233 hold36
*1234 hold37
*1235 hold38
*1236 hold39
*1237 hold4
*1238 hold40
*1239 hold41
*1240 hold42
*1241 hold43
*1242 hold44
*1243 hold45
*1244 hold46
*1245 hold47
*1246 hold5
*1247 hold6
*1248 hold7
*1249 hold8
*1250 hold9
*1251 input1
*1252 input10
*1253 input11
*1254 input12
*1255 input13
*1256 input14
*1257 input15
*1258 input16
*1259 input17
*1260 input2
*1261 input3
*1262 input4
*1263 input5
*1264 input6
*1265 input7
*1266 input8
*1267 input9
*1268 max_cap25
*1269 output18
*1270 output19
*1271 output20
*1272 output21
*1273 output22
*1274 output23
*1275 output24
*1276 wire26

*PORTS
clk I
i_valid I
i_value0[0] I
i_value0[1] I
i_value0[2] I
i_value1[0] I
i_value1[1] I
i_value1[2] I
i_value2[0] I
i_value2[1] I
i_value2[2] I
i_value3[0] I
i_value3[1] I
i_value3[2] I
i_value4[0] I
i_value4[1] I
i_value4[2] I
o_bucket[0] O
o_bucket[1] O
o_bucket[2] O
o_index[0] O
o_index[1] O
o_index[2] O
o_valid O
rst_n I

*D_NET *3 0.00867482
*CONN
*P clk I
*I *1195:A I *D sky130_fd_sc_hd__clkbuf_16
*CAP
1 clk 0.00423435
2 *1195:A 0.00423435
3 *1195:A *1124:A 0
4 *1195:A *1202:A 0.00020613
5 *1195:A *213:20 0
*RES
1 clk *1195:A 14.883 
*END

*D_NET *4 0.000473288
*CONN
*P i_valid I
*I *1251:A I *D sky130_fd_sc_hd__clkbuf_1
*CAP
1 i_valid 0.000236644
2 *1251:A 0.000236644
3 *1251:A *1144:CLK 0
*RES
1 i_valid *1251:A 6.64043 
*END

*D_NET *5 0.000879013
*CONN
*P i_value0[0] I
*I *1260:A I *D sky130_fd_sc_hd__buf_1
*CAP
1 i_value0[0] 0.000414526
2 *1260:A 0.000414526
3 *1260:A *314:14 4.99619e-05
*RES
1 i_value0[0] *1260:A 10.965 
*END

*D_NET *6 0.00114232
*CONN
*P i_value0[1] I
*I *1261:A I *D sky130_fd_sc_hd__buf_1
*CAP
1 i_value0[1] 0.00057116
2 *1261:A 0.00057116
3 *1261:A *1257:A 0
*RES
1 i_value0[1] *1261:A 13.455 
*END

*D_NET *7 0.00105242
*CONN
*P i_value0[2] I
*I *1262:A I *D sky130_fd_sc_hd__buf_1
*CAP
1 i_value0[2] 0.00046118
2 *1262:A 0.00046118
3 *1262:A *1237:A 0
4 *1262:A *1265:A 8.01019e-05
5 *1262:A *314:14 4.99619e-05
*RES
1 i_value0[2] *1262:A 10.522 
*END

*D_NET *8 0.000851891
*CONN
*P i_value1[0] I
*I *1263:A I *D sky130_fd_sc_hd__clkbuf_1
*CAP
1 i_value1[0] 0.000425945
2 *1263:A 0.000425945
*RES
1 i_value1[0] *1263:A 10.965 
*END

*D_NET *9 0.000592992
*CONN
*P i_value1[1] I
*I *1264:A I *D sky130_fd_sc_hd__buf_1
*CAP
1 i_value1[1] 0.000296496
2 *1264:A 0.000296496
3 *1264:A *1154:D 0
*RES
1 i_value1[1] *1264:A 6.37677 
*END

*D_NET *10 0.00104568
*CONN
*P i_value1[2] I
*I *1265:A I *D sky130_fd_sc_hd__buf_1
*CAP
1 i_value1[2] 0.000474697
2 *1265:A 0.000474697
3 *1265:A *314:14 1.61831e-05
4 *1262:A *1265:A 8.01019e-05
*RES
1 i_value1[2] *1265:A 12.105 
*END

*D_NET *11 0.00116745
*CONN
*P i_value2[0] I
*I *1266:A I *D sky130_fd_sc_hd__buf_1
*CAP
1 i_value2[0] 0.000563996
2 *1266:A 0.000563996
3 *1266:A o_valid 3.94592e-05
*RES
1 i_value2[0] *1266:A 13.14 
*END

*D_NET *12 0.00109268
*CONN
*P i_value2[1] I
*I *1267:A I *D sky130_fd_sc_hd__buf_1
*CAP
1 i_value2[1] 0.000373907
2 *1267:A 0.000373907
3 *1267:A *250:14 7.35813e-05
4 *1267:A *255:22 0.00019726
5 *1267:A *320:22 7.4027e-05
*RES
1 i_value2[1] *1267:A 11.04 
*END

*D_NET *13 0.000537476
*CONN
*P i_value2[2] I
*I *1252:A I *D sky130_fd_sc_hd__buf_1
*CAP
1 i_value2[2] 0.000268738
2 *1252:A 0.000268738
3 *1252:A *1254:A 0
*RES
1 i_value2[2] *1252:A 7.15043 
*END

*D_NET *14 0.00089195
*CONN
*P i_value3[0] I
*I *1253:A I *D sky130_fd_sc_hd__buf_1
*CAP
1 i_value3[0] 0.000432549
2 *1253:A 0.000432549
3 *1253:A *250:14 2.68526e-05
*RES
1 i_value3[0] *1253:A 11.04 
*END

*D_NET *15 0.00134172
*CONN
*P i_value3[1] I
*I *1254:A I *D sky130_fd_sc_hd__buf_1
*CAP
1 i_value3[1] 0.00067086
2 *1254:A 0.00067086
3 *1252:A *1254:A 0
*RES
1 i_value3[1] *1254:A 15.18 
*END

*D_NET *16 0.000939715
*CONN
*P i_value3[2] I
*I *1255:A I *D sky130_fd_sc_hd__buf_1
*CAP
1 i_value3[2] 0.000444037
2 *1255:A 0.000444037
3 *1255:A *1036:A1 5.16418e-05
*RES
1 i_value3[2] *1255:A 11.49 
*END

*D_NET *17 0.00122917
*CONN
*P i_value4[0] I
*I *1256:A I *D sky130_fd_sc_hd__buf_1
*CAP
1 i_value4[0] 0.000518756
2 *1256:A 0.000518756
3 *1256:A *1204:A 0.000123955
4 *1256:A *314:22 6.77046e-05
*RES
1 i_value4[0] *1256:A 13.245 
*END

*D_NET *18 0.000552755
*CONN
*P i_value4[1] I
*I *1257:A I *D sky130_fd_sc_hd__buf_1
*CAP
1 i_value4[1] 0.000276378
2 *1257:A 0.000276378
3 *1257:A *254:10 0
4 *1257:A *270:10 0
5 *1261:A *1257:A 0
*RES
1 i_value4[1] *1257:A 6.9687 
*END

*D_NET *19 0.00114497
*CONN
*P i_value4[2] I
*I *1258:A I *D sky130_fd_sc_hd__buf_1
*CAP
1 i_value4[2] 0.000482803
2 *1258:A 0.000482803
3 *1258:A *1028:A 5.84828e-05
4 *1258:A *1029:B1 1.12578e-05
5 *1258:A *1029:C1 2.30292e-05
6 *1258:A *1033:A 8.65961e-05
7 *1258:A *252:23 0
8 *1258:A *255:22 0
*RES
1 i_value4[2] *1258:A 12.18 
*END

*D_NET *20 0.000553679
*CONN
*P o_bucket[0] O
*I *1269:X O *D sky130_fd_sc_hd__buf_2
*CAP
1 o_bucket[0] 0.000246568
2 *1269:X 0.000246568
3 o_bucket[0] *1269:A 6.05437e-05
*RES
1 *1269:X o_bucket[0] 5.41503 
*END

*D_NET *21 0.000593234
*CONN
*P o_bucket[1] O
*I *1270:X O *D sky130_fd_sc_hd__buf_2
*CAP
1 o_bucket[1] 0.000281385
2 *1270:X 0.000281385
3 o_bucket[1] *258:8 3.04641e-05
*RES
1 *1270:X o_bucket[1] 5.4733 
*END

*D_NET *22 0.000612718
*CONN
*P o_bucket[2] O
*I *1271:X O *D sky130_fd_sc_hd__clkbuf_4
*CAP
1 o_bucket[2] 0.000306359
2 *1271:X 0.000306359
3 o_bucket[2] *260:12 0
*RES
1 *1271:X o_bucket[2] 7.24043 
*END

*D_NET *23 0.00111175
*CONN
*P o_index[0] O
*I *1272:X O *D sky130_fd_sc_hd__buf_2
*CAP
1 o_index[0] 0.000496701
2 *1272:X 0.000496701
3 o_index[0] *1234:A 7.60965e-05
4 o_index[0] *261:12 2.75145e-05
5 o_index[0] *314:14 1.47347e-05
*RES
1 *1272:X o_index[0] 11.73 
*END

*D_NET *24 0.00169958
*CONN
*P o_index[1] O
*I *1273:X O *D sky130_fd_sc_hd__clkbuf_4
*CAP
1 o_index[1] 0.000690744
2 *1273:X 0.000690744
3 o_index[1] *255:35 0.000318091
*RES
1 *1273:X o_index[1] 14.085 
*END

*D_NET *25 0.000531602
*CONN
*P o_index[2] O
*I *1274:X O *D sky130_fd_sc_hd__clkbuf_4
*CAP
1 o_index[2] 0.000265801
2 *1274:X 0.000265801
3 o_index[2] *1274:A 0
*RES
1 *1274:X o_index[2] 7.15043 
*END

*D_NET *26 0.00107716
*CONN
*P o_valid O
*I *1275:X O *D sky130_fd_sc_hd__clkbuf_4
*CAP
1 o_valid 0.000518848
2 *1275:X 0.000518848
3 o_valid *1275:A 0
4 *1266:A o_valid 3.94592e-05
*RES
1 *1275:X o_valid 10.9004 
*END

*D_NET *27 0.000614037
*CONN
*P rst_n I
*I *1259:A I *D sky130_fd_sc_hd__buf_12
*CAP
1 rst_n 0.000263237
2 *1259:A 0.000263237
3 *1259:A *270:10 8.7562e-05
*RES
1 rst_n *1259:A 6.37677 
*END

*D_NET *28 0.000739502
*CONN
*I *1130:D I *D sky130_fd_sc_hd__dfrtp_1
*I *1129:A I *D sky130_fd_sc_hd__nor2_1
*I *922:X O *D sky130_fd_sc_hd__clkbuf_1
*CAP
1 *1130:D 8.57518e-05
2 *1129:A 3.63291e-05
3 *922:X 2.94311e-05
4 *28:6 0.000151512
5 *1129:A *921:B 2.08971e-05
6 *1129:A *922:A 8.64599e-05
7 *1129:A *1128:B 3.5678e-06
8 *1130:D *1193:D 7.26302e-05
9 *28:6 *922:A 2.62258e-05
10 *28:6 *1128:B 0.000197862
11 *28:6 *1129:B 2.88357e-05
*RES
1 *922:X *28:6 3.43 
2 *28:6 *1129:A 3.01 
3 *28:6 *1130:D 7.235 
*END

*D_NET *29 0.000245512
*CONN
*I *1186:D I *D sky130_fd_sc_hd__dfrtp_1
*I *968:Y O *D sky130_fd_sc_hd__o21ai_1
*CAP
1 *1186:D 0.000113801
2 *968:Y 0.000113801
3 *1186:D *30:22 1.79098e-05
*RES
1 *968:Y *1186:D 4.685 
*END

*D_NET *30 0.0228144
*CONN
*I *1084:S I *D sky130_fd_sc_hd__mux2_1
*I *1086:S I *D sky130_fd_sc_hd__mux2_1
*I *1095:S I *D sky130_fd_sc_hd__mux2_1
*I *1097:S I *D sky130_fd_sc_hd__mux2_1
*I *1092:S I *D sky130_fd_sc_hd__mux2_1
*I *1179:D I *D sky130_fd_sc_hd__dfrtp_1
*I *1088:S I *D sky130_fd_sc_hd__mux2_1
*I *956:X O *D sky130_fd_sc_hd__clkbuf_4
*CAP
1 *1084:S 4.64537e-05
2 *1086:S 0.000442074
3 *1095:S 0.000607202
4 *1097:S 0
5 *1092:S 0.00151162
6 *1179:D 8.32143e-05
7 *1088:S 0
8 *956:X 0
9 *30:113 0.00221274
10 *30:82 0.00253595
11 *30:47 0.00220691
12 *30:34 0.00106763
13 *30:22 0.00249717
14 *30:4 0.00224615
15 *1084:S *1084:A1 3.75194e-05
16 *1086:S *1085:A 7.39901e-05
17 *1086:S *99:35 0.0004668
18 *1086:S *256:628 0
19 *1086:S *256:638 0
20 *1092:S *992:A 4.89395e-05
21 *1092:S *1137:D 0.000164965
22 *1092:S *1139:CLK 0.000217979
23 *1092:S *1139:D 3.20891e-05
24 *1092:S *1139:RESET_B 0.000275948
25 *1092:S *1179:CLK 3.65151e-05
26 *1092:S *1179:RESET_B 4.50253e-05
27 *1092:S *256:393 2.20753e-05
28 *1095:S *932:B1 9.22294e-06
29 *1095:S *1095:A0 4.77719e-05
30 *1095:S *1123:B 8.40388e-05
31 *1095:S *102:112 0.0004507
32 *1095:S *105:10 0.000174852
33 *1179:D *1179:CLK 2.68464e-05
34 *1179:D *1179:RESET_B 3.50562e-05
35 *30:22 *955:A_N 6.73435e-05
36 *30:22 *1097:A1 0.000765115
37 *30:22 *1122:A2 0.000461941
38 *30:22 *129:48 6.00963e-06
39 *30:22 *219:22 0.000128589
40 *30:34 *1077:A 0
41 *30:34 *1088:A1 1.52352e-05
42 *30:34 *1172:CLK 0.000109989
43 *30:34 *1178:D 1.16578e-05
44 *30:34 *244:10 0.000468742
45 *30:34 *319:10 0.00101079
46 *30:47 *999:A 9.05535e-05
47 *30:47 *1001:A 0.000115945
48 *30:47 *1077:A 7.63282e-05
49 *30:47 *1088:A0 0
50 *30:47 *1088:A1 7.08493e-05
51 *30:47 *1178:D 0
52 *30:47 *245:25 0
53 *30:47 *245:40 0
54 *30:82 *967:A1 3.31348e-05
55 *30:82 *1122:A2 4.40506e-05
56 *30:82 *97:33 2.3091e-05
57 *30:113 *1084:A1 0.000197826
58 *30:113 *1085:A 5.06989e-05
59 *30:113 *1174:CLK 0.000534011
60 *30:113 *1174:D 2.75145e-05
61 *30:113 *1174:RESET_B 1.54481e-05
62 *30:113 *97:33 8.65794e-05
63 *30:113 *256:599 0.000179451
64 *30:113 *256:611 0.000333568
65 *30:113 *256:618 0.000114518
66 *30:113 *256:628 5.0096e-05
67 *1186:D *30:22 1.79098e-05
*RES
1 *956:X *30:4 1.6 
2 *30:4 *30:22 36.88 
3 *30:22 *30:34 17.695 
4 *30:34 *1088:S 1.6 
5 *30:34 *30:47 15.19 
6 *30:47 *1179:D 3.085 
7 *30:47 *1092:S 21.91 
8 *30:22 *1097:S 1.6 
9 *30:4 *30:82 2.52 
10 *30:82 *1095:S 20.01 
11 *30:82 *30:113 29.905 
12 *30:113 *1086:S 15.65 
13 *30:113 *1084:S 2.395 
*END

*D_NET *31 0.000829962
*CONN
*I *1131:D I *D sky130_fd_sc_hd__dfrtp_1
*I *976:X O *D sky130_fd_sc_hd__clkbuf_1
*CAP
1 *1131:D 0.000163584
2 *976:X 0.000163584
3 *1131:D *977:A0 0.000164686
4 *1131:D *1003:A1 7.34364e-05
5 *1131:D *1131:CLK 2.04101e-05
6 *1131:D *145:55 0.000143266
7 *1131:D *256:26 5.90156e-05
8 *1131:D *256:36 4.19797e-05
*RES
1 *976:X *1131:D 11.97 
*END

*D_NET *32 0.000700709
*CONN
*I *1132:D I *D sky130_fd_sc_hd__dfrtp_1
*I *978:X O *D sky130_fd_sc_hd__clkbuf_1
*CAP
1 *1132:D 0.000243054
2 *978:X 0.000243054
3 *1132:D *1007:A1 6.74079e-05
4 *1132:D *1224:A 8.16598e-05
5 *1132:D *1273:A 6.55328e-05
*RES
1 *978:X *1132:D 11.1 
*END

*D_NET *33 0.000523666
*CONN
*I *1133:D I *D sky130_fd_sc_hd__dfrtp_1
*I *980:X O *D sky130_fd_sc_hd__clkbuf_1
*CAP
1 *1133:D 0.000198432
2 *980:X 0.000198432
3 *1133:D *243:31 0.000126802
*RES
1 *980:X *1133:D 5.735 
*END

*D_NET *34 0.000419921
*CONN
*I *1134:D I *D sky130_fd_sc_hd__dfrtp_1
*I *988:X O *D sky130_fd_sc_hd__clkbuf_1
*CAP
1 *1134:D 0.000196503
2 *988:X 0.000196503
3 *1134:D *256:771 2.69153e-05
*RES
1 *988:X *1134:D 9.915 
*END

*D_NET *35 0.000349063
*CONN
*I *1135:D I *D sky130_fd_sc_hd__dfrtp_1
*I *990:X O *D sky130_fd_sc_hd__clkbuf_1
*CAP
1 *1135:D 0.000121548
2 *990:X 0.000121548
3 *1135:D *1134:RESET_B 6.19969e-05
4 *1135:D *1173:RESET_B 8.33066e-06
5 *1135:D *99:22 3.56402e-05
*RES
1 *990:X *1135:D 9.225 
*END

*D_NET *36 0.000545188
*CONN
*I *1136:D I *D sky130_fd_sc_hd__dfrtp_1
*I *991:X O *D sky130_fd_sc_hd__a21o_1
*CAP
1 *1136:D 0.000193844
2 *991:X 0.000193844
3 *1136:D *986:C1 7.26579e-05
4 *1136:D *281:29 0
5 *1136:D *314:14 8.4841e-05
*RES
1 *991:X *1136:D 10.38 
*END

*D_NET *37 0.000521274
*CONN
*I *1137:D I *D sky130_fd_sc_hd__dfrtp_1
*I *999:X O *D sky130_fd_sc_hd__clkbuf_1
*CAP
1 *1137:D 0.000100778
2 *999:X 0.000100778
3 *1137:D *999:A 5.31158e-06
4 *1137:D *1179:CLK 8.52883e-05
5 *1137:D *245:40 6.41532e-05
6 *1137:D *319:10 0
7 *1092:S *1137:D 0.000164965
*RES
1 *999:X *1137:D 10.11 
*END

*D_NET *38 0.000367205
*CONN
*I *1138:D I *D sky130_fd_sc_hd__dfrtp_1
*I *1001:X O *D sky130_fd_sc_hd__clkbuf_1
*CAP
1 *1138:D 0.000150156
2 *1001:X 0.000150156
3 *1138:D *1138:CLK 6.68924e-05
*RES
1 *1001:X *1138:D 4.95875 
*END

*D_NET *39 0.000493308
*CONN
*I *1139:D I *D sky130_fd_sc_hd__dfrtp_1
*I *1002:X O *D sky130_fd_sc_hd__a21o_1
*CAP
1 *1139:D 0.000183705
2 *1002:X 0.000183705
3 *1139:D *1092:A0 2.67022e-05
4 *1139:D *1139:CLK 6.71068e-05
5 *1139:D *253:40 0
6 *1092:S *1139:D 3.20891e-05
*RES
1 *1002:X *1139:D 9.8325 
*END

*D_NET *40 0.000607831
*CONN
*I *1140:D I *D sky130_fd_sc_hd__dfrtp_1
*I *1004:X O *D sky130_fd_sc_hd__clkbuf_1
*CAP
1 *1140:D 0.000204487
2 *1004:X 0.000204487
3 *1140:D *1078:A1 6.52265e-05
4 *1140:D *126:228 0
5 *1140:D *154:27 4.70343e-05
6 *1140:D *154:33 8.65961e-05
*RES
1 *1004:X *1140:D 10.41 
*END

*D_NET *41 0.00102589
*CONN
*I *1141:D I *D sky130_fd_sc_hd__dfrtp_1
*I *1006:X O *D sky130_fd_sc_hd__clkbuf_1
*CAP
1 *1141:D 0.000257929
2 *1006:X 0.000257929
3 *1141:D *1003:A1 0.000263606
4 *1141:D *1006:A 7.1679e-05
5 *1141:D *1084:A1 6.62684e-05
6 *1141:D *113:8 2.38055e-05
7 *1141:D *294:14 8.46682e-05
*RES
1 *1006:X *1141:D 12.645 
*END

*D_NET *42 0.000905694
*CONN
*I *1142:D I *D sky130_fd_sc_hd__dfrtp_1
*I *1008:X O *D sky130_fd_sc_hd__clkbuf_1
*CAP
1 *1142:D 0.000144344
2 *1008:X 0.000144344
3 *1142:D *932:A1 0.000157041
4 *1142:D *1142:RESET_B 4.66108e-05
5 *1142:D *1191:RESET_B 2.85623e-05
6 *1142:D *246:48 2.65814e-06
7 *1142:D *246:83 3.09364e-05
8 *1142:D *256:720 0.000243166
9 *1142:D *355:19 0.000108031
*RES
1 *1008:X *1142:D 11.505 
*END

*D_NET *43 0.000300693
*CONN
*I *1143:D I *D sky130_fd_sc_hd__dfrtp_1
*I *1016:X O *D sky130_fd_sc_hd__clkbuf_1
*CAP
1 *1143:D 0.000141173
2 *1016:X 0.000141173
3 *1143:D *1018:A 1.7386e-05
4 *1143:D *1144:D 9.60582e-07
*RES
1 *1016:X *1143:D 9.12 
*END

*D_NET *44 0.000245286
*CONN
*I *1144:D I *D sky130_fd_sc_hd__dfrtp_1
*I *1018:X O *D sky130_fd_sc_hd__clkbuf_1
*CAP
1 *1144:D 0.000122163
2 *1018:X 0.000122163
3 *1143:D *1144:D 9.60582e-07
*RES
1 *1018:X *1144:D 8.67375 
*END

*D_NET *45 0.000407709
*CONN
*I *1145:D I *D sky130_fd_sc_hd__dfrtp_1
*I *1019:X O *D sky130_fd_sc_hd__a21o_1
*CAP
1 *1145:D 0.000157236
2 *1019:X 0.000157236
3 *1145:D *240:73 9.32375e-05
*RES
1 *1019:X *1145:D 10.065 
*END

*D_NET *46 0.000277977
*CONN
*I *1146:D I *D sky130_fd_sc_hd__dfrtp_1
*I *1021:X O *D sky130_fd_sc_hd__clkbuf_1
*CAP
1 *1146:D 7.01055e-05
2 *1021:X 7.01055e-05
3 *1146:D *1021:A 3.72081e-05
4 *1146:D *245:12 3.02303e-05
5 *1146:D *256:377 7.03276e-05
*RES
1 *1021:X *1146:D 8.56875 
*END

*D_NET *47 0.000467254
*CONN
*I *1147:D I *D sky130_fd_sc_hd__dfrtp_1
*I *1023:X O *D sky130_fd_sc_hd__clkbuf_1
*CAP
1 *1147:D 0.000187568
2 *1023:X 0.000187568
3 *1147:D *1182:CLK 4.8086e-05
4 *1147:D *244:44 4.40324e-05
*RES
1 *1023:X *1147:D 5.735 
*END

*D_NET *48 0.000416778
*CONN
*I *1148:D I *D sky130_fd_sc_hd__dfrtp_1
*I *1025:X O *D sky130_fd_sc_hd__clkbuf_1
*CAP
1 *1148:D 0.000175945
2 *1025:X 0.000175945
3 *1148:D *1182:RESET_B 0
4 *1148:D *319:10 6.48889e-05
*RES
1 *1025:X *1148:D 9.72 
*END

*D_NET *49 0.000809764
*CONN
*I *1149:D I *D sky130_fd_sc_hd__dfrtp_1
*I *1033:X O *D sky130_fd_sc_hd__clkbuf_1
*CAP
1 *1149:D 0.000262589
2 *1033:X 0.000262589
3 *1149:D *1027:A 0
4 *1149:D *1030:B1 4.66108e-05
5 *1149:D *1030:B2 3.62405e-05
6 *1149:D *1033:A 6.32915e-05
7 *1149:D *1158:CLK 0.000113453
8 *1149:D *240:48 2.49909e-05
*RES
1 *1033:X *1149:D 11.37 
*END

*D_NET *50 0.000342468
*CONN
*I *1150:D I *D sky130_fd_sc_hd__dfrtp_1
*I *1035:X O *D sky130_fd_sc_hd__clkbuf_1
*CAP
1 *1150:D 0.000123163
2 *1035:X 0.000123163
3 *1150:D *1035:A 2.33708e-05
4 *1150:D *1150:CLK 7.27717e-05
*RES
1 *1035:X *1150:D 5.39 
*END

*D_NET *51 0.000632599
*CONN
*I *1151:D I *D sky130_fd_sc_hd__dfrtp_1
*I *1036:X O *D sky130_fd_sc_hd__a21o_1
*CAP
1 *1151:D 0.00021471
2 *1036:X 0.00021471
3 *1151:D *1036:A1 0
4 *1151:D *251:6 0.000203178
*RES
1 *1036:X *1151:D 10.41 
*END

*D_NET *52 0.000446963
*CONN
*I *1152:D I *D sky130_fd_sc_hd__dfrtp_1
*I *1038:X O *D sky130_fd_sc_hd__clkbuf_1
*CAP
1 *1152:D 0.000153349
2 *1038:X 0.000153349
3 *1152:D *1197:A 4.77769e-05
4 *1152:D *326:53 9.24881e-05
*RES
1 *1038:X *1152:D 9.465 
*END

*D_NET *53 0.000762166
*CONN
*I *1153:D I *D sky130_fd_sc_hd__dfrtp_1
*I *1040:X O *D sky130_fd_sc_hd__clkbuf_1
*CAP
1 *1153:D 0.000217433
2 *1040:X 0.000217433
3 *1153:D *1011:A 0
4 *1153:D *1235:A 0.000234169
5 *1153:D *326:53 9.31313e-05
*RES
1 *1040:X *1153:D 10.5 
*END

*D_NET *54 0.000476809
*CONN
*I *1154:D I *D sky130_fd_sc_hd__dfrtp_1
*I *1042:X O *D sky130_fd_sc_hd__clkbuf_1
*CAP
1 *1154:D 0.000238405
2 *1042:X 0.000238405
3 *1154:D *319:10 0
4 *1264:A *1154:D 0
*RES
1 *1042:X *1154:D 10.155 
*END

*D_NET *55 0.000281924
*CONN
*I *1155:D I *D sky130_fd_sc_hd__dfrtp_1
*I *1044:X O *D sky130_fd_sc_hd__clkbuf_1
*CAP
1 *1155:D 0.000105485
2 *1044:X 0.000105485
3 *1155:D *1157:CLK 4.22574e-05
4 *1155:D *253:72 2.86975e-05
*RES
1 *1044:X *1155:D 9.03 
*END

*D_NET *56 0.000815875
*CONN
*I *1156:D I *D sky130_fd_sc_hd__dfrtp_1
*I *1046:X O *D sky130_fd_sc_hd__clkbuf_1
*CAP
1 *1156:D 0.000254812
2 *1046:X 0.000254812
3 *1156:D *972:A1 5.062e-06
4 *1156:D *973:B2 7.23533e-05
5 *1156:D *1046:A 7.23533e-05
6 *1156:D *1156:RESET_B 0.000156482
*RES
1 *1046:X *1156:D 10.95 
*END

*D_NET *57 0.000453939
*CONN
*I *1157:D I *D sky130_fd_sc_hd__dfrtp_1
*I *1047:X O *D sky130_fd_sc_hd__a21o_1
*CAP
1 *1157:D 0.000128429
2 *1047:X 0.000128429
3 *1157:D *1047:A2 6.88421e-05
4 *1157:D *93:162 4.35665e-05
5 *1157:D *250:14 8.46717e-05
*RES
1 *1047:X *1157:D 9.375 
*END

*D_NET *58 0.000631363
*CONN
*I *1158:D I *D sky130_fd_sc_hd__dfrtp_1
*I *1049:X O *D sky130_fd_sc_hd__clkbuf_1
*CAP
1 *1158:D 0.000198972
2 *1049:X 0.000198972
3 *1158:D *1049:A 0.00011852
4 *1158:D *1158:RESET_B 0.000114899
*RES
1 *1049:X *1158:D 11.1 
*END

*D_NET *59 0.000270475
*CONN
*I *1159:D I *D sky130_fd_sc_hd__dfrtp_1
*I *1051:X O *D sky130_fd_sc_hd__clkbuf_1
*CAP
1 *1159:D 9.78914e-05
2 *1051:X 9.78914e-05
3 *1159:D *1159:RESET_B 4.77769e-05
4 *1159:D *326:36 2.69153e-05
*RES
1 *1051:X *1159:D 8.775 
*END

*D_NET *60 0.000727695
*CONN
*I *1160:D I *D sky130_fd_sc_hd__dfrtp_1
*I *1053:X O *D sky130_fd_sc_hd__clkbuf_1
*CAP
1 *1160:D 0.000133264
2 *1053:X 0.000133264
3 *1160:D *1009:A 9.41477e-05
4 *1160:D *1031:C1 3.29196e-05
5 *1160:D *1246:A 7.01303e-05
6 *1160:D *240:67 3.31348e-05
7 *1160:D *240:73 3.30017e-05
8 *1160:D *256:179 0.000197833
*RES
1 *1053:X *1160:D 10.92 
*END

*D_NET *61 0.000192052
*CONN
*I *1161:D I *D sky130_fd_sc_hd__dfrtp_1
*I *1055:X O *D sky130_fd_sc_hd__clkbuf_1
*CAP
1 *1161:D 4.74729e-05
2 *1055:X 4.74729e-05
3 *1161:D *923:A 0
4 *1161:D *1005:A1 9.71067e-05
*RES
1 *1055:X *1161:D 8.325 
*END

*D_NET *62 0.00048877
*CONN
*I *1162:D I *D sky130_fd_sc_hd__dfrtp_1
*I *1057:X O *D sky130_fd_sc_hd__clkbuf_1
*CAP
1 *1162:D 0.000187529
2 *1057:X 0.000187529
3 *1162:D *1162:CLK 7.30505e-05
4 *1162:D *371:8 4.06619e-05
*RES
1 *1057:X *1162:D 5.735 
*END

*D_NET *63 0.000481576
*CONN
*I *1163:D I *D sky130_fd_sc_hd__dfrtp_1
*I *1059:X O *D sky130_fd_sc_hd__clkbuf_1
*CAP
1 *1163:D 0.000129783
2 *1059:X 0.000129783
3 *1163:D *1059:A 0
4 *1163:D *243:31 0.00022201
*RES
1 *1059:X *1163:D 9.465 
*END

*D_NET *64 0.000350128
*CONN
*I *1164:D I *D sky130_fd_sc_hd__dfrtp_1
*I *1061:X O *D sky130_fd_sc_hd__clkbuf_1
*CAP
1 *1164:D 0.000138884
2 *1061:X 0.000138884
3 *1164:D *243:31 0
4 *1164:D *367:23 7.23602e-05
*RES
1 *1061:X *1164:D 9.225 
*END

*D_NET *65 0.000749581
*CONN
*I *1165:D I *D sky130_fd_sc_hd__dfrtp_1
*I *1063:X O *D sky130_fd_sc_hd__clkbuf_1
*CAP
1 *1165:D 0.000315878
2 *1063:X 0.000315878
3 *1165:D *240:25 0
4 *1165:D *240:125 0
5 *1165:D *369:8 0.000117825
*RES
1 *1063:X *1165:D 11.76 
*END

*D_NET *66 0.000262107
*CONN
*I *1166:D I *D sky130_fd_sc_hd__dfrtp_1
*I *1065:X O *D sky130_fd_sc_hd__clkbuf_1
*CAP
1 *1166:D 6.84987e-05
2 *1065:X 6.84987e-05
3 *1166:D *1065:A 7.16347e-05
4 *1166:D *1166:CLK 5.34747e-05
*RES
1 *1065:X *1166:D 5.045 
*END

*D_NET *67 0.000207577
*CONN
*I *1167:D I *D sky130_fd_sc_hd__dfrtp_1
*I *1067:X O *D sky130_fd_sc_hd__clkbuf_1
*CAP
1 *1167:D 7.14205e-05
2 *1067:X 7.14205e-05
3 *1167:D *93:219 6.47357e-05
*RES
1 *1067:X *1167:D 8.58 
*END

*D_NET *68 0.00041725
*CONN
*I *1168:D I *D sky130_fd_sc_hd__dfrtp_1
*I *1069:X O *D sky130_fd_sc_hd__clkbuf_1
*CAP
1 *1168:D 0.000149606
2 *1069:X 0.000149606
3 *1168:D *1168:CLK 3.32922e-05
4 *1168:D *1249:A 4.99619e-05
5 *1168:D *126:32 3.47837e-05
*RES
1 *1069:X *1168:D 9.61875 
*END

*D_NET *69 0.000232696
*CONN
*I *1169:D I *D sky130_fd_sc_hd__dfrtp_1
*I *1071:X O *D sky130_fd_sc_hd__clkbuf_1
*CAP
1 *1169:D 9.02957e-05
2 *1071:X 9.02957e-05
3 *1169:D *1071:A 5.21046e-05
4 *1169:D *319:10 0
*RES
1 *1071:X *1169:D 8.775 
*END

*D_NET *70 0.000362349
*CONN
*I *1170:D I *D sky130_fd_sc_hd__dfrtp_1
*I *1073:X O *D sky130_fd_sc_hd__clkbuf_1
*CAP
1 *1170:D 0.000132816
2 *1073:X 0.000132816
3 *1170:D *1073:A 4.77769e-05
4 *1170:D *1170:RESET_B 4.89395e-05
*RES
1 *1073:X *1170:D 5.39 
*END

*D_NET *71 0.00124615
*CONN
*I *1171:D I *D sky130_fd_sc_hd__dfrtp_1
*I *1075:X O *D sky130_fd_sc_hd__clkbuf_1
*CAP
1 *1171:D 0.000368688
2 *1075:X 0.000368688
3 *1171:D *950:A 0.000114518
4 *1171:D *1074:A0 2.747e-05
5 *1171:D *1075:A 4.23341e-05
6 *1171:D *1189:CLK 0.000239156
7 *1171:D *362:27 8.52972e-05
*RES
1 *1075:X *1171:D 14.895 
*END

*D_NET *72 0.000404307
*CONN
*I *1172:D I *D sky130_fd_sc_hd__dfrtp_1
*I *1077:X O *D sky130_fd_sc_hd__clkbuf_1
*CAP
1 *1172:D 0.000185632
2 *1077:X 0.000185632
3 *1172:D *1172:CLK 3.30434e-05
*RES
1 *1077:X *1172:D 5.39 
*END

*D_NET *73 0.000786049
*CONN
*I *1173:D I *D sky130_fd_sc_hd__dfrtp_1
*I *1079:X O *D sky130_fd_sc_hd__clkbuf_1
*CAP
1 *1173:D 0.000285383
2 *1079:X 0.000285383
3 *1173:D *102:10 9.09788e-06
4 *1173:D *102:108 7.14241e-05
5 *1173:D *247:26 7.06865e-05
6 *1173:D *247:32 5.01123e-05
7 *1173:D *247:41 1.39628e-05
*RES
1 *1079:X *1173:D 11.055 
*END

*D_NET *74 0.000945223
*CONN
*I *1174:D I *D sky130_fd_sc_hd__dfrtp_1
*I *1081:X O *D sky130_fd_sc_hd__clkbuf_1
*CAP
1 *1174:D 0.000296847
2 *1081:X 0.000296847
3 *1174:D *1003:A1 6.01821e-05
4 *1174:D *1082:S 3.43305e-05
5 *1174:D *113:8 0.000159179
6 *1174:D *256:599 0
7 *1174:D *360:12 7.03219e-05
8 *30:113 *1174:D 2.75145e-05
*RES
1 *1081:X *1174:D 12.555 
*END

*D_NET *75 0.000296493
*CONN
*I *1175:D I *D sky130_fd_sc_hd__dfrtp_1
*I *1083:X O *D sky130_fd_sc_hd__clkbuf_1
*CAP
1 *1175:D 0.000103527
2 *1083:X 0.000103527
3 *1175:D *1083:A 4.28282e-05
4 *1175:D *1175:CLK 4.66108e-05
*RES
1 *1083:X *1175:D 5.15 
*END

*D_NET *76 0.00129631
*CONN
*I *1176:D I *D sky130_fd_sc_hd__dfrtp_1
*I *1085:X O *D sky130_fd_sc_hd__clkbuf_1
*CAP
1 *1176:D 0.000528562
2 *1085:X 0.000528562
3 *1176:D *1080:A1 0
4 *1176:D *256:618 9.10613e-05
5 *1176:D *256:628 0.000148122
*RES
1 *1085:X *1176:D 14.13 
*END

*D_NET *77 0.000290232
*CONN
*I *1177:D I *D sky130_fd_sc_hd__dfrtp_1
*I *1087:X O *D sky130_fd_sc_hd__clkbuf_1
*CAP
1 *1177:D 9.87232e-05
2 *1087:X 9.87232e-05
3 *1177:D *1177:CLK 4.89295e-05
4 *1177:D *270:18 4.38565e-05
*RES
1 *1087:X *1177:D 5.15 
*END

*D_NET *78 0.000909513
*CONN
*I *1178:D I *D sky130_fd_sc_hd__dfrtp_1
*I *1089:X O *D sky130_fd_sc_hd__clkbuf_1
*CAP
1 *1178:D 0.000274732
2 *1089:X 0.000274732
3 *1178:D *1088:A0 9.54399e-05
4 *1178:D *1089:A 8.8266e-05
5 *1178:D *319:10 0.000164686
6 *30:34 *1178:D 1.16578e-05
7 *30:47 *1178:D 0
*RES
1 *1089:X *1178:D 12.42 
*END

*D_NET *79 0.0006407
*CONN
*I *1180:D I *D sky130_fd_sc_hd__dfrtp_1
*I *1093:X O *D sky130_fd_sc_hd__clkbuf_1
*CAP
1 *1180:D 0.000217085
2 *1093:X 0.000217085
3 *1180:D *1093:A 3.89366e-05
4 *1180:D *1180:CLK 2.88357e-05
5 *1180:D *93:232 0.000138757
*RES
1 *1093:X *1180:D 11.355 
*END

*D_NET *80 0.000311284
*CONN
*I *1181:D I *D sky130_fd_sc_hd__dfrtp_1
*I *1096:X O *D sky130_fd_sc_hd__clkbuf_1
*CAP
1 *1181:D 9.85905e-05
2 *1096:X 9.85905e-05
3 *1181:D *1181:CLK 4.77807e-05
4 *1181:D *1181:RESET_B 6.63221e-05
*RES
1 *1096:X *1181:D 5.045 
*END

*D_NET *81 0.000760012
*CONN
*I *1182:D I *D sky130_fd_sc_hd__dfrtp_1
*I *1098:X O *D sky130_fd_sc_hd__clkbuf_1
*CAP
1 *1182:D 0.000380006
2 *1098:X 0.000380006
*RES
1 *1098:X *1182:D 11.745 
*END

*D_NET *82 0.0001645
*CONN
*I *1183:D I *D sky130_fd_sc_hd__dfrtp_4
*I *1103:X O *D sky130_fd_sc_hd__clkbuf_1
*CAP
1 *1183:D 5.77883e-05
2 *1103:X 5.77883e-05
3 *1183:D *1103:A 3.86607e-05
4 *1183:D *247:12 1.0263e-05
*RES
1 *1103:X *1183:D 8.22375 
*END

*D_NET *83 0.000544228
*CONN
*I *1184:D I *D sky130_fd_sc_hd__dfrtp_1
*I *1108:X O *D sky130_fd_sc_hd__o211a_1
*CAP
1 *1184:D 0.000245765
2 *1108:X 0.000245765
3 *1184:D *1108:B1 4.89395e-05
4 *1184:D *1180:CLK 3.75882e-06
*RES
1 *1108:X *1184:D 11.07 
*END

*D_NET *84 0.000644965
*CONN
*I *1185:D I *D sky130_fd_sc_hd__dfrtp_1
*I *1111:Y O *D sky130_fd_sc_hd__a21oi_1
*CAP
1 *1185:D 0.000207739
2 *1111:Y 0.000207739
3 *1185:D *1110:A 1.77945e-05
4 *1185:D *1111:A1 1.64067e-05
5 *1185:D *1111:A2 2.88357e-05
6 *1185:D *1111:B1 6.72833e-06
7 *1185:D *126:265 0.000159722
*RES
1 *1111:Y *1185:D 10.935 
*END

*D_NET *85 0.000878304
*CONN
*I *1187:D I *D sky130_fd_sc_hd__dfrtp_1
*I *1113:Y O *D sky130_fd_sc_hd__nand2_1
*CAP
1 *1187:D 0.000221132
2 *1113:Y 0.000221132
3 *1187:D *964:A1 0.000121039
4 *1187:D *964:A2 4.58691e-05
5 *1187:D *1203:A 0.00019608
6 *1187:D *115:14 7.30505e-05
*RES
1 *1113:Y *1187:D 11.295 
*END

*D_NET *86 0.000450297
*CONN
*I *1188:D I *D sky130_fd_sc_hd__dfrtp_1
*I *1115:Y O *D sky130_fd_sc_hd__nand2_1
*CAP
1 *1188:D 0.000119301
2 *1115:Y 0.000119301
3 *1188:D *1092:A1 5.39718e-05
4 *1188:D *1115:A 5.05521e-05
5 *1188:D *98:18 1.17309e-05
6 *1188:D *127:20 2.30797e-05
7 *1188:D *127:22 7.23602e-05
*RES
1 *1115:Y *1188:D 9.465 
*END

*D_NET *87 0.000498339
*CONN
*I *1189:D I *D sky130_fd_sc_hd__dfrtp_1
*I *1118:X O *D sky130_fd_sc_hd__clkbuf_1
*CAP
1 *1189:D 0.000109504
2 *1118:X 0.000109504
3 *1189:D *950:A 0.000118527
4 *1189:D *1118:A 6.55406e-05
5 *1189:D *1189:RESET_B 9.52646e-05
*RES
1 *1118:X *1189:D 10.065 
*END

*D_NET *88 0.00126157
*CONN
*I *1190:D I *D sky130_fd_sc_hd__dfrtp_1
*I *1121:X O *D sky130_fd_sc_hd__clkbuf_1
*CAP
1 *1190:D 0.00042783
2 *1121:X 0.00042783
3 *1190:D *98:53 0.000231815
4 *1190:D *99:69 0.000103772
5 *1190:D *377:27 7.03219e-05
*RES
1 *1121:X *1190:D 13.125 
*END

*D_NET *89 0.00113947
*CONN
*I *1191:D I *D sky130_fd_sc_hd__dfrtp_1
*I *1124:X O *D sky130_fd_sc_hd__clkbuf_1
*CAP
1 *1191:D 0.000328697
2 *1124:X 0.000328697
3 *1191:D *932:B1 7.23602e-05
4 *1191:D *1124:A 0.000131069
5 *1191:D *1191:CLK 0.000114852
6 *1191:D *97:33 4.44927e-05
7 *1191:D *246:10 6.88421e-05
8 *1191:D *246:23 5.04569e-05
*RES
1 *1124:X *1191:D 12.93 
*END

*D_NET *90 0.000329476
*CONN
*I *1192:D I *D sky130_fd_sc_hd__dfrtp_4
*I *1125:X O *D sky130_fd_sc_hd__xor2_1
*CAP
1 *1192:D 0.000126648
2 *1125:X 0.000126648
3 *1192:D *1156:CLK 7.61811e-05
*RES
1 *1125:X *1192:D 5.51 
*END

*D_NET *91 0.00183123
*CONN
*I *1193:D I *D sky130_fd_sc_hd__dfrtp_4
*I *1127:Y O *D sky130_fd_sc_hd__nor2_1
*CAP
1 *1193:D 0.000542019
2 *1127:Y 0.000542019
3 *1193:D *920:A 4.66108e-05
4 *1193:D *920:C 7.5771e-05
5 *1193:D *1048:A0 8.49205e-05
6 *1193:D *1127:A 2.01934e-05
7 *1193:D *1127:B 0.000159722
8 *1193:D *1128:B 5.062e-06
9 *1193:D *1193:CLK 0.000112595
10 *1193:D *93:133 5.47322e-05
11 *1193:D *94:17 1.17409e-05
12 *1193:D *325:8 3.33839e-05
13 *1193:D *326:18 4.1299e-05
14 *1193:D *326:36 2.85298e-05
15 *1130:D *1193:D 7.26302e-05
*RES
1 *1127:Y *1193:D 17.01 
*END

*D_NET *92 0.000665651
*CONN
*I *1194:D I *D sky130_fd_sc_hd__dfrtp_4
*I *1129:Y O *D sky130_fd_sc_hd__nor2_1
*CAP
1 *1194:D 0.000185906
2 *1129:Y 0.000185906
3 *1194:D *922:A 0.0001249
4 *1194:D *93:141 4.40446e-05
5 *1194:D *326:18 0.000124895
*RES
1 *1129:Y *1194:D 10.605 
*END

*D_NET *93 0.0331444
*CONN
*I *991:A1 I *D sky130_fd_sc_hd__a21o_1
*I *986:C1 I *D sky130_fd_sc_hd__o221a_2
*I *1002:A1 I *D sky130_fd_sc_hd__a21o_1
*I *997:C1 I *D sky130_fd_sc_hd__o221a_2
*I *920:A I *D sky130_fd_sc_hd__and3_1
*I *974:C1 I *D sky130_fd_sc_hd__o221a_2
*I *1125:A I *D sky130_fd_sc_hd__xor2_1
*I *1047:A2 I *D sky130_fd_sc_hd__a21o_1
*I *1126:A1 I *D sky130_fd_sc_hd__a21oi_1
*I *1014:C1 I *D sky130_fd_sc_hd__o221a_2
*I *1031:C1 I *D sky130_fd_sc_hd__o221a_2
*I *1019:A1 I *D sky130_fd_sc_hd__a21o_1
*I *1036:A1 I *D sky130_fd_sc_hd__a21o_1
*I *919:X O *D sky130_fd_sc_hd__buf_4
*CAP
1 *991:A1 0
2 *986:C1 0.00028056
3 *1002:A1 3.81102e-05
4 *997:C1 0
5 *920:A 1.65033e-05
6 *974:C1 0.000127134
7 *1125:A 0.000397559
8 *1047:A2 0.000144283
9 *1126:A1 0
10 *1014:C1 3.76064e-05
11 *1031:C1 0.00101949
12 *1019:A1 0
13 *1036:A1 0.000552507
14 *919:X 0.000313036
15 *93:265 0.00147601
16 *93:232 0.00177423
17 *93:219 0.00301338
18 *93:162 0.000819084
19 *93:141 0.00133236
20 *93:133 0.00108959
21 *93:122 0.00122235
22 *93:100 0.00408808
23 *93:81 0.000886194
24 *93:42 0.00132734
25 *93:18 0.000774161
26 *93:12 0.00056636
27 *920:A *326:36 2.49909e-05
28 *986:C1 *986:A1 4.77807e-05
29 *986:C1 *986:B1 8.33066e-06
30 *986:C1 *986:B2 4.89395e-05
31 *986:C1 *987:A0 0
32 *986:C1 *1136:CLK 4.41857e-05
33 *986:C1 *1240:A 0
34 *986:C1 *281:29 0
35 *1014:C1 *1012:B1 3.60024e-06
36 *1014:C1 *1017:A1 2.68016e-05
37 *1031:C1 *1009:A 0.000176685
38 *1031:C1 *1013:A1 8.6076e-05
39 *1031:C1 *1013:B1 0
40 *1031:C1 *1014:A2 9.6949e-06
41 *1031:C1 *1014:B2 8.83102e-06
42 *1031:C1 *1026:A 7.49327e-05
43 *1031:C1 *1031:A1 4.00541e-06
44 *1031:C1 *1031:B2 1.37328e-05
45 *1031:C1 *1036:B1 9.50342e-06
46 *1031:C1 *1150:RESET_B 0
47 *1031:C1 *1246:A 2.21697e-05
48 *1031:C1 *179:6 5.07419e-05
49 *1031:C1 *249:27 0.0001312
50 *1031:C1 *256:189 7.47145e-05
51 *1031:C1 *256:222 0.000667427
52 *1031:C1 *320:22 0
53 *1031:C1 *347:6 0.000273369
54 *1036:A1 *1019:A2 3.17749e-05
55 *1036:A1 *1019:B1 2.72614e-05
56 *1036:A1 *1036:A2 1.08758e-05
57 *1036:A1 *1036:B1 1.47256e-05
58 *1036:A1 *249:10 0.000417932
59 *1036:A1 *256:222 0
60 *1047:A2 *1047:B1 4.89295e-05
61 *1047:A2 *250:14 0.000161894
62 *1047:A2 *255:22 2.937e-05
63 *1047:A2 *255:35 4.57009e-05
64 *1125:A *1157:RESET_B 0.000172479
65 *1125:A *1273:A 0.000348134
66 *1125:A *256:77 6.04973e-05
67 *93:12 *1144:CLK 0
68 *93:12 *256:189 0
69 *93:18 *249:27 0.000354795
70 *93:18 *256:189 2.05583e-05
71 *93:81 *1012:C1 3.46748e-05
72 *93:81 *1014:A1 0.000180662
73 *93:81 *1014:B1 6.41797e-05
74 *93:81 *173:16 3.30017e-05
75 *93:81 *256:189 9.54469e-05
76 *93:100 *1012:A1 2.05056e-05
77 *93:100 *1014:B1 0.000307143
78 *93:100 *1064:A0 6.38722e-05
79 *93:100 *1165:CLK 8.49205e-05
80 *93:100 *126:26 8.92676e-05
81 *93:100 *126:32 4.66108e-05
82 *93:100 *256:169 0.000312182
83 *93:122 *1062:A0 0.00016219
84 *93:122 *1062:A1 0.000122287
85 *93:122 *1168:CLK 1.52184e-05
86 *93:122 *240:10 6.40712e-05
87 *93:122 *240:125 6.28765e-05
88 *93:122 *253:72 0
89 *93:122 *324:32 0.000267554
90 *93:122 *325:12 2.42043e-05
91 *93:122 *325:14 3.75882e-06
92 *93:122 *325:54 8.53902e-05
93 *93:122 *326:36 6.52989e-05
94 *93:122 *369:8 5.12942e-05
95 *93:133 *1060:A1 6.12027e-05
96 *93:133 *1127:B 4.58262e-06
97 *93:133 *1193:CLK 6.12027e-05
98 *93:133 *1194:CLK 0.000186995
99 *93:133 *324:32 4.77769e-05
100 *93:133 *326:18 5.05981e-05
101 *93:141 *1194:CLK 0.000138894
102 *93:141 *1194:RESET_B 2.86869e-05
103 *93:141 *326:8 1.6564e-05
104 *93:141 *326:18 0.000147647
105 *93:141 *326:115 2.38749e-05
106 *93:162 *326:115 0.000127877
107 *93:219 *935:C1 0.000109796
108 *93:219 *938:D1 0.000288575
109 *93:219 *946:B 5.50989e-05
110 *93:219 *948:B1 0
111 *93:219 *950:A 0
112 *93:219 *951:A2 3.4243e-05
113 *93:219 *951:C1 0
114 *93:219 *951:D1 0.000421985
115 *93:219 *964:B2 3.75882e-06
116 *93:219 *997:A2 3.75882e-06
117 *93:219 *1020:A1 0
118 *93:219 *1072:A1 3.6227e-05
119 *93:219 *1118:A 0
120 *93:219 *1168:CLK 8.26536e-05
121 *93:219 *1211:A 0
122 *93:219 *102:43 0
123 *93:219 *102:54 0
124 *93:219 *111:12 5.14703e-05
125 *93:219 *126:32 0
126 *93:219 *245:63 0
127 *93:219 *253:40 0
128 *93:219 *365:12 0.000214347
129 *93:219 *369:8 6.14602e-05
130 *93:219 *376:8 0
131 *93:232 *997:B1 5.19006e-06
132 *93:232 *997:B2 1.02869e-05
133 *93:232 *1092:A0 0.000140946
134 *93:232 *1092:A1 5.00391e-05
135 *93:232 *1093:A 4.89395e-05
136 *93:265 *991:A2 5.19528e-05
137 *93:265 *1092:A0 0.000394699
138 *93:265 *314:14 0.00245942
139 *1136:D *986:C1 7.26579e-05
140 *1151:D *1036:A1 0
141 *1157:D *1047:A2 6.88421e-05
142 *1157:D *93:162 4.35665e-05
143 *1160:D *1031:C1 3.29196e-05
144 *1167:D *93:219 6.47357e-05
145 *1180:D *93:232 0.000138757
146 *1193:D *920:A 4.66108e-05
147 *1193:D *93:133 5.47322e-05
148 *1194:D *93:141 4.40446e-05
149 *1255:A *1036:A1 5.16418e-05
*RES
1 *919:X *93:12 10.355 
2 *93:12 *93:18 8.695 
3 *93:18 *1036:A1 15.725 
4 *93:18 *1019:A1 1.6 
5 *93:12 *93:42 0.45 
6 *93:42 *1031:C1 29.325 
7 *93:42 *93:81 9.385 
8 *93:81 *1014:C1 6.215 
9 *93:81 *93:100 13.52 
10 *93:100 *93:122 23.73 
11 *93:122 *1126:A1 1.6 
12 *93:122 *93:133 6.38 
13 *93:133 *93:141 15.82 
14 *93:141 *1047:A2 6.825 
15 *93:141 *93:162 7.565 
16 *93:162 *1125:A 14.765 
17 *93:162 *974:C1 3.43 
18 *93:133 *920:A 4.05 
19 *93:100 *93:219 47.165 
20 *93:219 *997:C1 1.6 
21 *93:219 *93:232 11.1875 
22 *93:232 *1002:A1 4.0875 
23 *93:232 *93:265 32.595 
24 *93:265 *986:C1 10.79 
25 *93:265 *991:A1 1.6 
*END

*D_NET *94 0.00204644
*CONN
*I *1128:B I *D sky130_fd_sc_hd__nor2_1
*I *921:B I *D sky130_fd_sc_hd__and2_1
*I *1127:A I *D sky130_fd_sc_hd__nor2_1
*I *920:X O *D sky130_fd_sc_hd__and3_1
*CAP
1 *1128:B 0.000387611
2 *921:B 2.06051e-05
3 *1127:A 7.1732e-05
4 *920:X 0
5 *94:17 0.000533233
6 *94:4 0.00019675
7 *1127:A *920:B 5.56397e-05
8 *1127:A *1048:A0 1.65287e-05
9 *1127:A *1048:A1 4.77769e-05
10 *1127:A *1127:B 8.46818e-05
11 *1128:B *922:A 3.184e-05
12 *1128:B *1128:A 3.5678e-06
13 *1128:B *1129:B 3.78324e-05
14 *94:17 *920:B 8.35118e-05
15 *94:17 *1127:B 1.5379e-05
16 *94:17 *326:18 4.66108e-05
17 *94:17 *326:36 0.000153816
18 *1129:A *921:B 2.08971e-05
19 *1129:A *1128:B 3.5678e-06
20 *1193:D *1127:A 2.01934e-05
21 *1193:D *1128:B 5.062e-06
22 *1193:D *94:17 1.17409e-05
23 *28:6 *1128:B 0.000197862
*RES
1 *920:X *94:4 1.6 
2 *94:4 *1127:A 3.805 
3 *94:4 *94:17 2.52 
4 *94:17 *921:B 2.215 
5 *94:17 *1128:B 7.63 
*END

*D_NET *95 0.000638945
*CONN
*I *922:A I *D sky130_fd_sc_hd__clkbuf_1
*I *921:X O *D sky130_fd_sc_hd__and2_1
*CAP
1 *922:A 0.000117965
2 *921:X 0.000117965
3 *922:A *1129:B 0.000133589
4 *1128:B *922:A 3.184e-05
5 *1129:A *922:A 8.64599e-05
6 *1194:D *922:A 0.0001249
7 *28:6 *922:A 2.62258e-05
*RES
1 *921:X *922:A 6.425 
*END

*D_NET *96 0.000632928
*CONN
*I *932:A2 I *D sky130_fd_sc_hd__a211o_1
*I *923:Y O *D sky130_fd_sc_hd__inv_2
*CAP
1 *932:A2 0.000232475
2 *923:Y 0.000232475
3 *932:A2 *932:B1 4.66108e-05
4 *932:A2 *1124:A 0.000121368
*RES
1 *923:Y *932:A2 6.77 
*END

*D_NET *97 0.00419233
*CONN
*I *1122:B1 I *D sky130_fd_sc_hd__a21oi_1
*I *967:A1 I *D sky130_fd_sc_hd__o2111a_2
*I *932:B1 I *D sky130_fd_sc_hd__a211o_1
*I *924:Y O *D sky130_fd_sc_hd__inv_2
*CAP
1 *1122:B1 0
2 *967:A1 0.000347584
3 *932:B1 0.000216976
4 *924:Y 0.000370118
5 *97:33 0.000621958
6 *97:8 0.000861468
7 *932:B1 *932:A1 0.000144246
8 *932:B1 *1124:A 4.66108e-05
9 *932:B1 *102:112 0
10 *932:B1 *126:177 6.03468e-05
11 *967:A1 *956:A 0.00012657
12 *967:A1 *1122:A1 0.000159327
13 *967:A1 *1122:A2 0.000229348
14 *97:8 *924:A 3.00381e-05
15 *97:33 *932:A1 7.53426e-05
16 *97:33 *1123:A 0.000298883
17 *97:33 *1174:CLK 6.11629e-05
18 *97:33 *1191:RESET_B 0.00013687
19 *97:33 *246:23 8.99891e-05
20 *932:A2 *932:B1 4.66108e-05
21 *1095:S *932:B1 9.22294e-06
22 *1191:D *932:B1 7.23602e-05
23 *1191:D *97:33 4.44927e-05
24 *30:82 *967:A1 3.31348e-05
25 *30:82 *97:33 2.3091e-05
26 *30:113 *97:33 8.65794e-05
*RES
1 *924:Y *97:8 7.5 
2 *97:8 *932:B1 7.86 
3 *97:8 *97:33 9.365 
4 *97:33 *967:A1 8.86 
5 *97:33 *1122:B1 1.6 
*END

*D_NET *98 0.0165131
*CONN
*I *931:A1 I *D sky130_fd_sc_hd__a221o_1
*I *1101:B1 I *D sky130_fd_sc_hd__o21ai_1
*I *1100:A I *D sky130_fd_sc_hd__or3_1
*I *935:A1 I *D sky130_fd_sc_hd__a221oi_2
*I *948:A1 I *D sky130_fd_sc_hd__o21ai_1
*I *947:A1 I *D sky130_fd_sc_hd__a2111o_1
*I *959:A1 I *D sky130_fd_sc_hd__a2111oi_1
*I *944:A1 I *D sky130_fd_sc_hd__o21ai_1
*I *951:A1 I *D sky130_fd_sc_hd__a2111o_2
*I *925:Y O *D sky130_fd_sc_hd__inv_2
*CAP
1 *931:A1 0.00117163
2 *1101:B1 6.4728e-05
3 *1100:A 0.000144625
4 *935:A1 6.03274e-05
5 *948:A1 0.000301918
6 *947:A1 0
7 *959:A1 0.00017056
8 *944:A1 6.30039e-05
9 *951:A1 0.000232342
10 *925:Y 0
11 *98:59 0.000304492
12 *98:53 0.000537949
13 *98:38 0.000975934
14 *98:30 0.00116836
15 *98:18 0.000919361
16 *98:10 0.000471019
17 *98:8 0.000637902
18 *98:4 0.00168757
19 *931:A1 *923:A 0
20 *931:A1 *928:B 0.000156778
21 *931:A1 *931:A2 0.000102006
22 *931:A1 *931:B1 3.97907e-05
23 *931:A1 *932:A1 1.97209e-05
24 *931:A1 *1007:A1 0.0010779
25 *931:A1 *1008:A 0.000481345
26 *931:A1 *1238:A 7.27704e-06
27 *931:A1 *99:51 8.74145e-05
28 *931:A1 *99:59 4.28112e-06
29 *931:A1 *126:198 0
30 *931:A1 *126:228 0
31 *931:A1 *355:17 1.07797e-05
32 *931:A1 *355:53 0.000411097
33 *935:A1 *935:A2 8.64488e-05
34 *935:A1 *936:A 4.29365e-05
35 *935:A1 *1203:A 0.000157401
36 *935:A1 *239:22 8.52845e-05
37 *944:A1 *944:A2 4.99619e-05
38 *944:A1 *944:B1 2.0514e-05
39 *948:A1 *948:A2 4.89295e-05
40 *948:A1 *948:B1 4.89295e-05
41 *948:A1 *951:B1 2.68464e-05
42 *948:A1 *1119:A1 1.8214e-05
43 *951:A1 *124:10 4.89362e-05
44 *959:A1 *944:A2 0.000113237
45 *959:A1 *946:A 1.47347e-05
46 *959:A1 *947:B1 7.1313e-05
47 *959:A1 *959:A2 0.000140964
48 *959:A1 *959:C1 5.65441e-05
49 *959:A1 *117:12 0.000122325
50 *959:A1 *367:36 8.96077e-05
51 *1100:A *1113:A 0.000163012
52 *1100:A *1115:B 2.24423e-05
53 *1100:A *127:20 0
54 *1100:A *127:22 0
55 *1100:A *127:28 0
56 *1100:A *219:28 1.07797e-05
57 *1100:A *219:45 1.26626e-05
58 *1101:B1 *1101:A1 6.49594e-06
59 *1101:B1 *219:22 3.00355e-05
60 *1101:B1 *219:28 7.14699e-05
61 *1101:B1 *355:61 4.82919e-05
62 *98:8 *1101:A1 2.31464e-05
63 *98:8 *355:53 4.77757e-05
64 *98:8 *355:61 0.000843687
65 *98:10 *219:28 1.08758e-05
66 *98:18 *1092:A1 6.98633e-05
67 *98:18 *1115:A 5.05521e-05
68 *98:18 *127:28 0.000137895
69 *98:30 *963:B 1.0555e-05
70 *98:30 *966:A2 0.00020613
71 *98:30 *1092:A1 5.87002e-05
72 *98:30 *115:22 1.42674e-05
73 *98:30 *115:28 8.73389e-06
74 *98:30 *116:10 6.79504e-05
75 *98:30 *116:18 0.000102411
76 *98:30 *127:28 0.000278868
77 *98:30 *137:10 0
78 *98:30 *239:18 0.000510855
79 *98:30 *253:40 0
80 *98:38 *1120:A 3.58098e-05
81 *98:38 *1120:B 9.47454e-05
82 *98:38 *1190:RESET_B 7.22565e-05
83 *98:38 *116:18 3.41011e-05
84 *98:38 *239:55 0
85 *98:38 *253:40 0
86 *98:38 *256:471 0.000105518
87 *98:53 *1121:A 8.64599e-05
88 *98:53 *1181:RESET_B 0.000121835
89 *98:53 *1276:A 0.000122817
90 *98:53 *120:22 0.00014467
91 *98:59 *947:C1 6.47357e-05
92 *98:59 *367:36 2.59285e-05
93 *1188:D *98:18 1.17309e-05
94 *1190:D *98:53 0.000231815
*RES
1 *925:Y *98:4 1.6 
2 *98:4 *98:8 9.945 
3 *98:8 *98:10 0.795 
4 *98:10 *98:18 6.86 
5 *98:18 *98:30 17.44 
6 *98:30 *98:38 7.505 
7 *98:38 *951:A1 4.12 
8 *98:38 *98:53 11.57 
9 *98:53 *98:59 3.74 
10 *98:59 *944:A1 2.755 
11 *98:59 *959:A1 10.415 
12 *98:53 *947:A1 3.6 
13 *98:30 *948:A1 8.205 
14 *98:18 *935:A1 5.775 
15 *98:10 *1100:A 8.45 
16 *98:8 *1101:B1 3.55 
17 *98:4 *931:A1 31.265 
*END

*D_NET *99 0.0204058
*CONN
*I *1108:A1 I *D sky130_fd_sc_hd__o211a_1
*I *1105:B I *D sky130_fd_sc_hd__nand2_1
*I *1106:B I *D sky130_fd_sc_hd__or2_1
*I *933:A I *D sky130_fd_sc_hd__inv_2
*I *940:B I *D sky130_fd_sc_hd__xnor2_1
*I *927:A I *D sky130_fd_sc_hd__or2_1
*I *928:A I *D sky130_fd_sc_hd__nand2_1
*I *949:A I *D sky130_fd_sc_hd__xor2_1
*I *945:A I *D sky130_fd_sc_hd__xor2_1
*I *1086:A1 I *D sky130_fd_sc_hd__mux2_1
*I *926:X O *D sky130_fd_sc_hd__clkbuf_4
*CAP
1 *1108:A1 0
2 *1105:B 0
3 *1106:B 3.75118e-05
4 *933:A 0.000306519
5 *940:B 6.73864e-05
6 *927:A 0
7 *928:A 2.0132e-05
8 *949:A 0.000143127
9 *945:A 0.000129499
10 *1086:A1 0
11 *926:X 0.000135068
12 *99:138 0.000443474
13 *99:134 0.000340778
14 *99:124 0.0010071
15 *99:69 0.00137919
16 *99:59 0.00137089
17 *99:51 0.00159738
18 *99:35 0.00198393
19 *99:22 0.00161895
20 *99:8 0.00195642
21 *933:A *1092:A1 0.000366021
22 *933:A *1248:A 0.000196048
23 *933:A *106:10 3.16358e-05
24 *933:A *361:12 0.000367688
25 *940:B *940:A 8.52845e-05
26 *940:B *1084:A0 4.89558e-05
27 *945:A *945:B 1.16578e-05
28 *945:A *946:A 2.30292e-05
29 *945:A *1120:A 0.00013475
30 *949:A *1068:A0 1.22325e-05
31 *949:A *119:14 0.000235351
32 *949:A *325:54 0.000412125
33 *1106:B *1092:A1 0.000139245
34 *1106:B *361:12 0.000129742
35 *99:22 *1086:A0 2.86975e-05
36 *99:22 *1087:A 2.75441e-05
37 *99:22 *1135:CLK 0.000307482
38 *99:22 *1135:RESET_B 4.11729e-05
39 *99:22 *1136:RESET_B 7.26348e-05
40 *99:22 *1245:A 0.000197843
41 *99:22 *102:10 0.000121038
42 *99:22 *126:242 0.000302466
43 *99:22 *256:656 0.000407353
44 *99:22 *256:668 0.000150644
45 *99:22 *328:6 8.52972e-05
46 *99:35 *1084:A0 0.000131917
47 *99:35 *1086:A0 9.4879e-05
48 *99:35 *270:16 0.000532328
49 *99:51 *940:A 6.13283e-05
50 *99:51 *1161:CLK 4.77807e-05
51 *99:51 *1161:RESET_B 8.96106e-05
52 *99:51 *1238:A 0.000129341
53 *99:51 *1273:A 9.42867e-05
54 *99:51 *256:10 0
55 *99:51 *256:589 0
56 *99:51 *256:599 0
57 *99:51 *270:10 0
58 *99:51 *359:10 9.91655e-05
59 *99:51 *370:8 0.0004524
60 *99:59 *1007:A1 2.79723e-05
61 *99:59 *1273:A 9.18556e-05
62 *99:59 *126:161 0.000112414
63 *99:69 *1120:A 0.000155489
64 *99:69 *1190:CLK 0.000122817
65 *99:69 *1190:RESET_B 8.39948e-05
66 *99:69 *377:8 0.000173878
67 *99:124 *247:103 0.000148938
68 *99:124 *247:115 2.01737e-05
69 *99:134 *1104:A 6.73329e-05
70 *99:134 *1106:A 0.000137578
71 *99:134 *102:30 4.82863e-05
72 *99:134 *127:20 7.61187e-05
73 *99:134 *219:45 0
74 *99:138 *102:30 0.00023468
75 *931:A1 *99:51 8.74145e-05
76 *931:A1 *99:59 4.28112e-06
77 *1086:S *99:35 0.0004668
78 *1135:D *99:22 3.56402e-05
79 *1190:D *99:69 0.000103772
*RES
1 *926:X *99:8 5.745 
2 *99:8 *99:22 23.9 
3 *99:22 *1086:A1 1.6 
4 *99:22 *99:35 17.975 
5 *99:35 *99:51 29.8 
6 *99:51 *99:59 6.35 
7 *99:59 *99:69 20.585 
8 *99:69 *945:A 6.3 
9 *99:69 *949:A 8.205 
10 *99:59 *928:A 1.96 
11 *99:51 *927:A 3.6 
12 *99:35 *940:B 5.085 
13 *99:8 *99:124 13.42 
14 *99:124 *99:134 7.19 
15 *99:134 *99:138 4.175 
16 *99:138 *933:A 11.685 
17 *99:138 *1106:B 5.235 
18 *99:134 *1105:B 1.6 
19 *99:124 *1108:A1 3.6 
*END

*D_NET *100 0.000476569
*CONN
*I *931:B1 I *D sky130_fd_sc_hd__a221o_1
*I *927:X O *D sky130_fd_sc_hd__or2_1
*CAP
1 *931:B1 7.0239e-05
2 *927:X 7.0239e-05
3 *931:B1 *931:A2 0.000102006
4 *931:B1 *262:12 0.000194295
5 *931:A1 *931:B1 3.97907e-05
*RES
1 *927:X *931:B1 5.39 
*END

*D_NET *101 0.000259872
*CONN
*I *931:B2 I *D sky130_fd_sc_hd__a221o_1
*I *928:Y O *D sky130_fd_sc_hd__nand2_1
*CAP
1 *931:B2 6.39802e-05
2 *928:Y 6.39802e-05
3 *931:B2 *928:B 3.89366e-05
4 *931:B2 *931:C1 6.31104e-05
5 *931:B2 *126:177 1.64056e-05
6 *931:B2 *262:12 1.34587e-05
*RES
1 *928:Y *931:B2 8.82 
*END

*D_NET *102 0.019233
*CONN
*I *939:B I *D sky130_fd_sc_hd__xnor2_1
*I *930:A I *D sky130_fd_sc_hd__xor2_1
*I *946:A I *D sky130_fd_sc_hd__xor2_1
*I *1109:B1 I *D sky130_fd_sc_hd__o31ai_1
*I *1110:A I *D sky130_fd_sc_hd__or4_1
*I *937:A I *D sky130_fd_sc_hd__or2b_1
*I *950:A I *D sky130_fd_sc_hd__xor2_1
*I *934:B I *D sky130_fd_sc_hd__and2b_1
*I *1088:A1 I *D sky130_fd_sc_hd__mux2_1
*I *929:X O *D sky130_fd_sc_hd__clkbuf_4
*CAP
1 *939:B 0
2 *930:A 0
3 *946:A 0.0010864
4 *1109:B1 5.4399e-05
5 *1110:A 0.000248969
6 *937:A 0
7 *950:A 0.000798888
8 *934:B 0
9 *1088:A1 0.000618663
10 *929:X 0.00022548
11 *102:112 0.00200251
12 *102:108 0.0014515
13 *102:54 0.00105456
14 *102:43 0.000371904
15 *102:30 0.00150041
16 *102:18 0.00101448
17 *102:16 0.000630598
18 *102:10 0.00133708
19 *946:A *944:A2 4.35348e-05
20 *946:A *944:B1 0.000238919
21 *946:A *945:B 0.000122331
22 *946:A *946:B 3.13354e-05
23 *946:A *959:C1 0.000312182
24 *946:A *117:12 3.54025e-05
25 *946:A *118:6 0.000345342
26 *946:A *243:35 0
27 *950:A *1020:A1 0
28 *950:A *1075:A 0
29 *950:A *1117:A 0.000200615
30 *950:A *1118:A 0.000101381
31 *950:A *111:12 7.58382e-05
32 *1088:A1 *1020:A0 0.000124895
33 *1088:A1 *1020:S 0.00046451
34 *1088:A1 *1076:S 3.77036e-05
35 *1088:A1 *1208:A 0.000201872
36 *1088:A1 *279:6 0.000160641
37 *1109:B1 *1111:A1 4.66108e-05
38 *1109:B1 *139:55 1.62201e-05
39 *1110:A *1107:B1 2.22596e-05
40 *1110:A *1110:B 8.53011e-05
41 *1110:A *1110:C 7.50406e-05
42 *1110:A *1111:A2 5.19006e-06
43 *1110:A *126:265 9.12673e-05
44 *1110:A *139:79 0.000163953
45 *1110:A *219:77 4.77807e-05
46 *102:10 *247:26 1.08056e-05
47 *102:10 *247:97 7.80915e-05
48 *102:16 *1111:A1 0.000160383
49 *102:30 *1020:A0 0.00038879
50 *102:30 *1072:A1 7.44125e-05
51 *102:30 *1107:B1 0
52 *102:30 *1211:A 8.65905e-05
53 *102:30 *139:47 4.38568e-05
54 *102:30 *139:79 1.43602e-05
55 *102:30 *224:10 0.000197264
56 *102:30 *355:84 0.000271303
57 *102:43 *1020:A1 8.08439e-05
58 *102:43 *1211:A 0
59 *102:43 *245:10 0
60 *102:54 *937:B_N 9.95805e-05
61 *102:54 *1020:A1 0
62 *102:54 *1075:A 0
63 *102:54 *1188:RESET_B 6.52265e-05
64 *102:108 *942:B 5.07293e-05
65 *102:108 *1247:A 0.00030372
66 *102:108 *247:8 0.000310898
67 *102:108 *247:26 0.000114926
68 *102:112 *930:B 2.98644e-05
69 *102:112 *1123:A 9.54469e-05
70 *102:112 *246:10 0
71 *102:112 *246:23 0
72 *102:112 *246:38 0
73 *932:B1 *102:112 0
74 *945:A *946:A 2.30292e-05
75 *959:A1 *946:A 1.47347e-05
76 *1095:S *102:112 0.0004507
77 *1171:D *950:A 0.000114518
78 *1173:D *102:10 9.09788e-06
79 *1173:D *102:108 7.14241e-05
80 *1185:D *1110:A 1.77945e-05
81 *1189:D *950:A 0.000118527
82 *30:34 *1088:A1 1.52352e-05
83 *30:47 *1088:A1 7.08493e-05
84 *93:219 *950:A 0
85 *93:219 *102:43 0
86 *93:219 *102:54 0
87 *99:22 *102:10 0.000121038
88 *99:134 *102:30 4.82863e-05
89 *99:138 *102:30 0.00023468
*RES
1 *929:X *102:10 6.885 
2 *102:10 *102:16 9.11 
3 *102:16 *102:18 2 
4 *102:18 *102:30 17 
5 *102:30 *1088:A1 13.435 
6 *102:30 *102:43 6.145 
7 *102:43 *934:B 1.6 
8 *102:43 *102:54 6.65 
9 *102:54 *950:A 18.255 
10 *102:54 *937:A 3.6 
11 *102:18 *1110:A 9 
12 *102:16 *1109:B1 2.665 
13 *102:10 *102:108 12.135 
14 *102:108 *102:112 18.68 
15 *102:112 *946:A 25.04 
16 *102:112 *930:A 1.6 
17 *102:108 *939:B 3.6 
*END

*D_NET *103 0.000687767
*CONN
*I *931:C1 I *D sky130_fd_sc_hd__a221o_1
*I *930:X O *D sky130_fd_sc_hd__xor2_1
*CAP
1 *931:C1 0.000312328
2 *930:X 0.000312328
3 *931:B2 *931:C1 6.31104e-05
*RES
1 *930:X *931:C1 11.76 
*END

*D_NET *104 0.000851411
*CONN
*I *932:C1 I *D sky130_fd_sc_hd__a211o_1
*I *931:X O *D sky130_fd_sc_hd__a221o_1
*CAP
1 *932:C1 0.000112627
2 *931:X 0.000112627
3 *932:C1 *1007:A1 0.000289157
4 *932:C1 *126:177 0.000289223
5 *932:C1 *262:12 4.77769e-05
*RES
1 *931:X *932:C1 11.07 
*END

*D_NET *105 0.00299499
*CONN
*I *952:A I *D sky130_fd_sc_hd__and4_1
*I *958:A_N I *D sky130_fd_sc_hd__and4b_1
*I *932:X O *D sky130_fd_sc_hd__a211o_1
*CAP
1 *952:A 0
2 *958:A_N 0.000247516
3 *932:X 0.000517402
4 *105:10 0.000764918
5 *958:A_N *958:C 0.000349592
6 *958:A_N *967:B1 0.000116165
7 *958:A_N *1091:A2 0
8 *958:A_N *1094:B1 3.09164e-05
9 *958:A_N *1116:A1 5.83121e-06
10 *105:10 *952:B 4.66826e-05
11 *105:10 *952:D 3.1835e-05
12 *105:10 *1124:A 0.000496324
13 *105:10 *1202:A 4.66108e-05
14 *105:10 *1268:A 4.99619e-05
15 *105:10 *125:10 3.00381e-05
16 *105:10 *213:20 8.63479e-05
17 *1095:S *105:10 0.000174852
*RES
1 *932:X *105:10 12.865 
2 *105:10 *958:A_N 10.805 
3 *105:10 *952:A 1.6 
*END

*D_NET *106 0.000866596
*CONN
*I *935:B2 I *D sky130_fd_sc_hd__a221oi_2
*I *938:A1 I *D sky130_fd_sc_hd__o2111a_1
*I *933:Y O *D sky130_fd_sc_hd__inv_2
*CAP
1 *935:B2 0
2 *938:A1 0.000107528
3 *933:Y 0.000128257
4 *106:10 0.000235785
5 *938:A1 *935:B1 7.66105e-05
6 *938:A1 *938:C1 2.68464e-05
7 *938:A1 *108:12 0.000109544
8 *938:A1 *253:40 3.20618e-05
9 *938:A1 *375:20 8.74345e-06
10 *106:10 *253:40 1.18236e-05
11 *106:10 *375:20 9.776e-05
12 *933:A *106:10 3.16358e-05
*RES
1 *933:Y *106:10 5.775 
2 *106:10 *938:A1 6.195 
3 *106:10 *935:B2 3.6 
*END

*D_NET *107 0.00155863
*CONN
*I *935:C1 I *D sky130_fd_sc_hd__a221oi_2
*I *934:X O *D sky130_fd_sc_hd__and2b_1
*CAP
1 *935:C1 0.000442375
2 *934:X 0.000442375
3 *935:C1 *938:D1 9.78316e-05
4 *935:C1 *1188:RESET_B 0.000386221
5 *935:C1 *1200:A 1.14169e-05
6 *935:C1 *239:22 2.20014e-05
7 *935:C1 *375:10 4.66108e-05
8 *935:C1 *375:20 0
9 *93:219 *935:C1 0.000109796
*RES
1 *934:X *935:C1 15.9 
*END

*D_NET *108 0.00207733
*CONN
*I *943:A1 I *D sky130_fd_sc_hd__a21oi_1
*I *963:B I *D sky130_fd_sc_hd__nand3b_1
*I *965:A1 I *D sky130_fd_sc_hd__a21o_1
*I *935:Y O *D sky130_fd_sc_hd__a221oi_2
*CAP
1 *943:A1 5.05301e-05
2 *963:B 8.83537e-05
3 *965:A1 2.24105e-05
4 *935:Y 0.000256235
5 *108:21 0.000199133
6 *108:12 0.000338895
7 *943:A1 *943:A2 3.75126e-05
8 *943:A1 *115:28 2.72628e-05
9 *963:B *938:C1 6.66424e-06
10 *963:B *943:A2 2.84864e-05
11 *963:B *963:C 0.000114201
12 *963:B *239:18 7.11275e-05
13 *963:B *253:40 1.69511e-05
14 *965:A1 *111:23 3.13354e-05
15 *965:A1 *115:28 1.57184e-05
16 *108:12 *935:B1 1.52702e-05
17 *108:12 *239:22 0.000155601
18 *108:12 *253:40 0.000280749
19 *108:21 *943:A2 4.77757e-05
20 *108:21 *111:23 0.000118081
21 *108:21 *115:28 2.20014e-05
22 *108:21 *137:10 1.29371e-05
23 *938:A1 *108:12 0.000109544
24 *98:30 *963:B 1.0555e-05
*RES
1 *935:Y *108:12 10.505 
2 *108:12 *965:A1 2.215 
3 *108:12 *108:21 1.485 
4 *108:21 *963:B 7.865 
5 *108:21 *943:A1 2.755 
*END

*D_NET *109 0.00116663
*CONN
*I *938:C1 I *D sky130_fd_sc_hd__o2111a_1
*I *936:X O *D sky130_fd_sc_hd__or2b_1
*CAP
1 *938:C1 0.000438116
2 *936:X 0.000438116
3 *938:C1 *938:B1 4.77719e-05
4 *938:C1 *963:A_N 1.10007e-05
5 *938:C1 *963:C 9.08754e-06
6 *938:C1 *1092:A1 7.03276e-05
7 *938:C1 *135:6 2.69217e-05
8 *938:C1 *239:18 7.03276e-05
9 *938:C1 *362:27 2.14495e-05
10 *938:A1 *938:C1 2.68464e-05
11 *963:B *938:C1 6.66424e-06
*RES
1 *936:X *938:C1 12.66 
*END

*D_NET *110 0.000850758
*CONN
*I *938:D1 I *D sky130_fd_sc_hd__o2111a_1
*I *937:X O *D sky130_fd_sc_hd__or2b_1
*CAP
1 *938:D1 0.000202269
2 *937:X 0.000202269
3 *938:D1 *375:20 5.98118e-05
4 *935:C1 *938:D1 9.78316e-05
5 *93:219 *938:D1 0.000288575
*RES
1 *937:X *938:D1 11.685 
*END

*D_NET *111 0.00181978
*CONN
*I *963:C I *D sky130_fd_sc_hd__nand3b_1
*I *943:A2 I *D sky130_fd_sc_hd__a21oi_1
*I *965:A2 I *D sky130_fd_sc_hd__a21o_1
*I *938:X O *D sky130_fd_sc_hd__o2111a_1
*CAP
1 *963:C 6.66998e-05
2 *943:A2 3.84744e-05
3 *965:A2 0
4 *938:X 0.000273741
5 *111:23 0.000231432
6 *111:12 0.000399999
7 *943:A2 *963:A_N 4.99524e-05
8 *943:A2 *115:28 8.64421e-05
9 *963:C *963:A_N 0.000159248
10 *938:C1 *963:C 9.08754e-06
11 *943:A1 *943:A2 3.75126e-05
12 *950:A *111:12 7.58382e-05
13 *963:B *943:A2 2.84864e-05
14 *963:B *963:C 0.000114201
15 *965:A1 *111:23 3.13354e-05
16 *93:219 *111:12 5.14703e-05
17 *108:21 *943:A2 4.77757e-05
18 *108:21 *111:23 0.000118081
*RES
1 *938:X *111:12 10.445 
2 *111:12 *965:A2 1.6 
3 *111:12 *111:23 4.1 
4 *111:23 *943:A2 5.01 
5 *111:23 *963:C 5.7375 
*END

*D_NET *112 0.000914894
*CONN
*I *962:A I *D sky130_fd_sc_hd__nand3_1
*I *942:B I *D sky130_fd_sc_hd__and4_1
*I *939:Y O *D sky130_fd_sc_hd__xnor2_1
*CAP
1 *962:A 0.00011567
2 *942:B 0.000144928
3 *939:Y 0
4 *112:4 0.000260598
5 *942:B *939:A 1.16854e-05
6 *962:A *939:A 0.000127356
7 *962:A *942:C 8.35157e-05
8 *962:A *962:C 0.000120412
9 *102:108 *942:B 5.07293e-05
*RES
1 *939:Y *112:4 1.6 
2 *112:4 *942:B 7.685 
3 *112:4 *962:A 4.645 
*END

*D_NET *113 0.00392595
*CONN
*I *962:B I *D sky130_fd_sc_hd__nand3_1
*I *942:C I *D sky130_fd_sc_hd__and4_1
*I *940:Y O *D sky130_fd_sc_hd__xnor2_1
*CAP
1 *962:B 0
2 *942:C 0.000229477
3 *940:Y 0.00039632
4 *113:8 0.000625797
5 *942:C *939:A 0.000121039
6 *942:C *942:A 9.01012e-05
7 *942:C *942:D 6.30772e-05
8 *942:C *962:C 0.000219432
9 *942:C *1142:CLK 5.8069e-05
10 *942:C *134:12 4.90272e-05
11 *942:C *246:46 0.000153685
12 *942:C *246:48 1.8498e-05
13 *942:C *246:52 5.84662e-05
14 *113:8 *939:A 0.000739108
15 *113:8 *962:C 4.71087e-05
16 *113:8 *1007:A0 0.000492686
17 *113:8 *1007:A1 0.000105675
18 *113:8 *294:14 7.26398e-05
19 *113:8 *360:12 0.000119247
20 *962:A *942:C 8.35157e-05
21 *1141:D *113:8 2.38055e-05
22 *1174:D *113:8 0.000159179
*RES
1 *940:Y *113:8 13.45 
2 *113:8 *942:C 13.115 
3 *113:8 *962:B 1.6 
*END

*D_NET *114 0.00228142
*CONN
*I *942:D I *D sky130_fd_sc_hd__and4_1
*I *962:C I *D sky130_fd_sc_hd__nand3_1
*I *941:Y O *D sky130_fd_sc_hd__xnor2_1
*CAP
1 *942:D 0.000155623
2 *962:C 0.000303162
3 *941:Y 0.000286823
4 *114:8 0.000745608
5 *942:D *942:A 0.000161474
6 *962:C *134:12 6.23541e-06
7 *114:8 *134:12 3.87166e-05
8 *114:8 *247:8 0
9 *114:8 *256:696 0.00013375
10 *942:C *942:D 6.30772e-05
11 *942:C *962:C 0.000219432
12 *962:A *962:C 0.000120412
13 *113:8 *962:C 4.71087e-05
*RES
1 *941:Y *114:8 8.55 
2 *114:8 *962:C 8.79 
3 *114:8 *942:D 5.775 
*END

*D_NET *115 0.00368241
*CONN
*I *1091:A1 I *D sky130_fd_sc_hd__o21ai_1
*I *943:B1 I *D sky130_fd_sc_hd__a21oi_1
*I *965:B1 I *D sky130_fd_sc_hd__a21o_1
*I *963:A_N I *D sky130_fd_sc_hd__nand3b_1
*I *942:X O *D sky130_fd_sc_hd__and4_1
*CAP
1 *1091:A1 3.60954e-05
2 *943:B1 0
3 *965:B1 0
4 *963:A_N 8.63369e-05
5 *942:X 0.000380486
6 *115:28 0.000216443
7 *115:22 0.00031553
8 *115:14 0.000602007
9 *963:A_N *253:40 0.000156284
10 *1091:A1 *1091:B1 1.04769e-05
11 *115:14 *964:A1 0.000198651
12 *115:14 *964:A2 7.80073e-05
13 *115:14 *964:B1 1.79098e-05
14 *115:14 *246:52 0.000599633
15 *115:14 *374:17 3.51072e-05
16 *115:22 *967:C1 0.000136685
17 *115:22 *1091:A2 0.000136685
18 *115:22 *116:10 2.49909e-05
19 *115:22 *127:28 9.03066e-05
20 *115:22 *129:59 7.27704e-06
21 *115:28 *137:10 8.58181e-05
22 *938:C1 *963:A_N 1.10007e-05
23 *943:A1 *115:28 2.72628e-05
24 *943:A2 *963:A_N 4.99524e-05
25 *943:A2 *115:28 8.64421e-05
26 *963:C *963:A_N 0.000159248
27 *965:A1 *115:28 1.57184e-05
28 *1187:D *115:14 7.30505e-05
29 *98:30 *115:22 1.42674e-05
30 *98:30 *115:28 8.73389e-06
31 *108:21 *115:28 2.20014e-05
*RES
1 *942:X *115:14 12.295 
2 *115:14 *115:22 8.41 
3 *115:22 *115:28 2.895 
4 *115:28 *963:A_N 8.2775 
5 *115:28 *965:B1 1.6 
6 *115:22 *943:B1 1.6 
7 *115:14 *1091:A1 2.32 
*END

*D_NET *116 0.00327728
*CONN
*I *958:B I *D sky130_fd_sc_hd__and4b_1
*I *952:B I *D sky130_fd_sc_hd__and4_1
*I *961:A1 I *D sky130_fd_sc_hd__a31o_1
*I *943:Y O *D sky130_fd_sc_hd__a21oi_1
*CAP
1 *958:B 9.73191e-06
2 *952:B 9.28356e-05
3 *961:A1 6.23018e-05
4 *943:Y 0.00025482
5 *116:18 0.000467542
6 *116:10 0.000576957
7 *952:B *960:A 8.65961e-05
8 *952:B *961:B1 3.74161e-05
9 *952:B *213:20 7.67415e-06
10 *958:B *958:C 4.82863e-05
11 *958:B *239:18 4.82863e-05
12 *961:A1 *961:B1 0.000118513
13 *961:A1 *1094:B1 5.42386e-05
14 *961:A1 *377:27 1.1561e-05
15 *116:10 *1091:A2 0
16 *116:10 *127:28 5.25343e-05
17 *116:10 *137:42 0.000114492
18 *116:10 *239:18 0.000501689
19 *116:18 *960:A 7.40446e-05
20 *116:18 *961:B1 4.66108e-05
21 *116:18 *1094:B1 1.61831e-05
22 *116:18 *1119:A1 1.03423e-05
23 *116:18 *1119:A3 2.30292e-05
24 *116:18 *1119:B1 0.000122331
25 *116:18 *1120:B 5.53249e-06
26 *116:18 *137:42 0.000157595
27 *116:18 *239:55 0
28 *98:30 *116:10 6.79504e-05
29 *98:30 *116:18 0.000102411
30 *98:38 *116:18 3.41011e-05
31 *105:10 *952:B 4.66826e-05
32 *115:22 *116:10 2.49909e-05
*RES
1 *943:Y *116:10 10.53 
2 *116:10 *116:18 8.135 
3 *116:18 *961:A1 7.235 
4 *116:18 *952:B 3.43 
5 *116:10 *958:B 4.05 
*END

*D_NET *117 0.00139745
*CONN
*I *959:B1 I *D sky130_fd_sc_hd__a2111oi_1
*I *947:B1 I *D sky130_fd_sc_hd__a2111o_1
*I *944:Y O *D sky130_fd_sc_hd__o21ai_1
*CAP
1 *959:B1 0
2 *947:B1 0.000107666
3 *944:Y 0.000242463
4 *117:12 0.000350129
5 *947:B1 *947:A2 4.75885e-05
6 *947:B1 *959:A2 8.34281e-06
7 *947:B1 *959:D1 0.000234763
8 *117:12 *959:C1 0.000110791
9 *117:12 *243:35 6.66631e-05
10 *946:A *117:12 3.54025e-05
11 *959:A1 *947:B1 7.1313e-05
12 *959:A1 *117:12 0.000122325
*RES
1 *944:Y *117:12 9.41 
2 *117:12 *947:B1 4.465 
3 *117:12 *959:B1 1.6 
*END

*D_NET *118 0.00241676
*CONN
*I *959:C1 I *D sky130_fd_sc_hd__a2111oi_1
*I *947:C1 I *D sky130_fd_sc_hd__a2111o_1
*I *945:X O *D sky130_fd_sc_hd__xor2_1
*CAP
1 *959:C1 0.000308033
2 *947:C1 0.000141699
3 *945:X 0.000238864
4 *118:6 0.000688596
5 *947:C1 *944:B1 7.04513e-05
6 *947:C1 *239:59 0
7 *947:C1 *367:23 0
8 *947:C1 *367:36 0
9 *959:C1 *243:35 4.4736e-05
10 *959:C1 *367:23 2.75707e-05
11 *959:C1 *367:36 7.21296e-06
12 *946:A *959:C1 0.000312182
13 *946:A *118:6 0.000345342
14 *959:A1 *959:C1 5.65441e-05
15 *98:59 *947:C1 6.47357e-05
16 *117:12 *959:C1 0.000110791
*RES
1 *945:X *118:6 4.81 
2 *118:6 *947:C1 8.255 
3 *118:6 *959:C1 11.12 
*END

*D_NET *119 0.00207874
*CONN
*I *959:D1 I *D sky130_fd_sc_hd__a2111oi_1
*I *947:D1 I *D sky130_fd_sc_hd__a2111o_1
*I *946:X O *D sky130_fd_sc_hd__xor2_1
*CAP
1 *959:D1 0.000137614
2 *947:D1 0
3 *946:X 0.000444422
4 *119:14 0.000582035
5 *959:D1 *120:22 0.000178483
6 *119:14 *1120:A 0
7 *119:14 *120:22 4.29365e-05
8 *119:14 *253:72 0.000140593
9 *119:14 *325:54 8.25446e-05
10 *947:B1 *959:D1 0.000234763
11 *949:A *119:14 0.000235351
*RES
1 *946:X *119:14 13.82 
2 *119:14 *947:D1 1.6 
3 *119:14 *959:D1 5.08 
*END

*D_NET *120 0.00403621
*CONN
*I *958:C I *D sky130_fd_sc_hd__and4b_1
*I *952:C I *D sky130_fd_sc_hd__and4_1
*I *1094:A1 I *D sky130_fd_sc_hd__a21oi_1
*I *947:X O *D sky130_fd_sc_hd__a2111o_1
*CAP
1 *958:C 0.000248922
2 *952:C 0
3 *1094:A1 3.4998e-05
4 *947:X 0.000493834
5 *120:33 0.000285261
6 *120:22 0.000565171
7 *958:C *958:D 0
8 *958:C *967:B1 9.13462e-05
9 *958:C *1116:A1 7.5531e-05
10 *958:C *1202:A 0.00037277
11 *958:C *125:10 6.99988e-05
12 *958:C *129:10 7.58604e-05
13 *958:C *213:20 7.47215e-05
14 *958:C *239:18 9.73554e-05
15 *958:C *239:51 3.66286e-05
16 *1094:A1 *961:A2 4.82863e-05
17 *120:22 *952:D 2.26797e-05
18 *120:22 *967:B1 2.93309e-05
19 *120:22 *1276:A 0.000279775
20 *120:22 *124:63 7.10443e-05
21 *120:22 *213:20 1.6461e-05
22 *120:22 *266:16 0.000109489
23 *120:33 *967:B1 5.92269e-05
24 *120:33 *213:20 0.00011355
25 *958:A_N *958:C 0.000349592
26 *958:B *958:C 4.82863e-05
27 *959:D1 *120:22 0.000178483
28 *98:53 *120:22 0.00014467
29 *119:14 *120:22 4.29365e-05
*RES
1 *947:X *120:22 14.01 
2 *120:22 *1094:A1 4.05 
3 *120:22 *120:33 1.38 
4 *120:33 *952:C 3.6 
5 *120:33 *958:C 12.09 
*END

*D_NET *121 0.000917659
*CONN
*I *951:B1 I *D sky130_fd_sc_hd__a2111o_2
*I *948:Y O *D sky130_fd_sc_hd__o21ai_1
*CAP
1 *951:B1 0.000228389
2 *948:Y 0.000228389
3 *951:B1 *951:A2 8.52845e-05
4 *951:B1 *951:C1 4.77719e-05
5 *951:B1 *124:10 0.000164531
6 *951:B1 *124:14 0.000136447
7 *951:B1 *256:471 0
8 *948:A1 *951:B1 2.68464e-05
*RES
1 *948:Y *951:B1 11.865 
*END

*D_NET *122 0.000741266
*CONN
*I *951:C1 I *D sky130_fd_sc_hd__a2111o_2
*I *949:X O *D sky130_fd_sc_hd__xor2_1
*CAP
1 *951:C1 0.000231223
2 *949:X 0.000231223
3 *951:C1 *951:A2 2.20014e-05
4 *951:C1 *124:10 9.95651e-05
5 *951:C1 *253:72 0.000109482
6 *951:B1 *951:C1 4.77719e-05
7 *93:219 *951:C1 0
*RES
1 *949:X *951:C1 11.97 
*END

*D_NET *123 0.00185737
*CONN
*I *951:D1 I *D sky130_fd_sc_hd__a2111o_2
*I *950:X O *D sky130_fd_sc_hd__xor2_1
*CAP
1 *951:D1 0.000468356
2 *950:X 0.000468356
3 *951:D1 *948:A2 0.000110683
4 *951:D1 *948:B1 0
5 *951:D1 *951:A2 0.000225692
6 *951:D1 *1117:A 0.000122155
7 *951:D1 *1117:B 3.03684e-05
8 *951:D1 *124:10 9.77048e-06
9 *951:D1 *124:14 0
10 *93:219 *951:D1 0.000421985
*RES
1 *950:X *951:D1 16.155 
*END

*D_NET *124 0.00574544
*CONN
*I *961:A3 I *D sky130_fd_sc_hd__a31o_1
*I *952:D I *D sky130_fd_sc_hd__and4_1
*I *1090:B I *D sky130_fd_sc_hd__nand2_1
*I *1094:A2 I *D sky130_fd_sc_hd__a21oi_1
*I *958:D I *D sky130_fd_sc_hd__and4b_1
*I *966:A2 I *D sky130_fd_sc_hd__o21ai_1
*I *1116:A3 I *D sky130_fd_sc_hd__o31a_1
*I *951:X O *D sky130_fd_sc_hd__a2111o_2
*CAP
1 *961:A3 1.86374e-05
2 *952:D 0.000150886
3 *1090:B 9.80248e-06
4 *1094:A2 0
5 *958:D 4.62106e-05
6 *966:A2 0.000265178
7 *1116:A3 1.36534e-05
8 *951:X 0.000231996
9 *124:65 9.80248e-06
10 *124:63 0.000378351
11 *124:55 0.000664678
12 *124:23 0.000373954
13 *124:14 0.000186488
14 *124:10 0.000760841
15 *952:D *961:A2 0.000107154
16 *952:D *213:20 5.28983e-05
17 *958:D *1116:A2 0
18 *961:A3 *1094:B1 3.5678e-06
19 *966:A2 *137:10 0
20 *1090:B *961:A2 4.82919e-05
21 *1090:B *266:16 4.77807e-05
22 *1116:A3 *1116:A1 4.66108e-05
23 *1116:A3 *1116:A2 4.66108e-05
24 *124:10 *951:A2 4.35931e-05
25 *124:10 *253:40 1.84696e-05
26 *124:10 *253:72 0.000145374
27 *124:14 *948:B1 0.000133085
28 *124:14 *253:40 0.000302455
29 *124:23 *1116:A1 0.000221426
30 *124:23 *1116:A2 4.82919e-05
31 *124:23 *130:10 2.23542e-05
32 *124:23 *253:40 1.34503e-05
33 *124:55 *961:A2 2.01737e-05
34 *124:55 *1120:A 2.69217e-05
35 *124:55 *253:40 3.14396e-05
36 *124:55 *256:471 0.000230626
37 *124:55 *364:6 5.72654e-05
38 *124:63 *961:A2 1.27189e-05
39 *124:63 *1094:B1 4.42148e-05
40 *124:63 *1095:A1 0.000119247
41 *951:A1 *124:10 4.89362e-05
42 *951:B1 *124:10 0.000164531
43 *951:B1 *124:14 0.000136447
44 *951:C1 *124:10 9.95651e-05
45 *951:D1 *124:10 9.77048e-06
46 *951:D1 *124:14 0
47 *958:C *958:D 0
48 *98:30 *966:A2 0.00020613
49 *105:10 *952:D 3.1835e-05
50 *120:22 *952:D 2.26797e-05
51 *120:22 *124:63 7.10443e-05
*RES
1 *951:X *124:10 8.7375 
2 *124:10 *124:14 6.0575 
3 *124:14 *1116:A3 2.05 
4 *124:14 *124:23 2.175 
5 *124:23 *966:A2 9.485 
6 *124:23 *958:D 2.41375 
7 *124:10 *124:55 9.3575 
8 *124:55 *124:63 5.405 
9 *124:63 *124:65 2 
10 *124:65 *1094:A2 1.6 
11 *124:65 *1090:B 2.05 
12 *124:63 *952:D 6.33 
13 *124:55 *961:A3 1.96 
*END

*D_NET *125 0.00128469
*CONN
*I *955:A_N I *D sky130_fd_sc_hd__and3b_1
*I *1099:B I *D sky130_fd_sc_hd__nand2_2
*I *952:X O *D sky130_fd_sc_hd__and4_1
*CAP
1 *955:A_N 0.000186687
2 *1099:B 0
3 *952:X 0.000201104
4 *125:10 0.000387791
5 *955:A_N *955:B 0.000125547
6 *955:A_N *955:C 2.69153e-05
7 *955:A_N *1186:CLK 5.72268e-05
8 *955:A_N *129:48 1.1688e-05
9 *955:A_N *373:24 4.18603e-06
10 *125:10 *1202:A 0
11 *125:10 *129:10 1.44259e-05
12 *125:10 *129:48 4.70343e-05
13 *125:10 *213:20 8.53113e-06
14 *125:10 *373:24 4.61744e-05
15 *958:C *125:10 6.99988e-05
16 *30:22 *955:A_N 6.73435e-05
17 *105:10 *125:10 3.00381e-05
*RES
1 *952:X *125:10 7.47 
2 *125:10 *1099:B 3.6 
3 *125:10 *955:A_N 8.235 
*END

*D_NET *126 0.0327192
*CONN
*I *1078:S I *D sky130_fd_sc_hd__mux2_1
*I *954:A I *D sky130_fd_sc_hd__inv_2
*I *1072:S I *D sky130_fd_sc_hd__mux2_1
*I *1111:B1 I *D sky130_fd_sc_hd__a21oi_1
*I *1080:S I *D sky130_fd_sc_hd__mux2_1
*I *1082:S I *D sky130_fd_sc_hd__mux2_1
*I *1123:A I *D sky130_fd_sc_hd__or2_1
*I *1054:S I *D sky130_fd_sc_hd__mux2_1
*I *1056:S I *D sky130_fd_sc_hd__mux2_1
*I *1058:S I *D sky130_fd_sc_hd__mux2_1
*I *1060:S I *D sky130_fd_sc_hd__mux2_1
*I *1062:S I *D sky130_fd_sc_hd__mux2_1
*I *1120:A I *D sky130_fd_sc_hd__or2_1
*I *1064:S I *D sky130_fd_sc_hd__mux2_1
*I *1117:A I *D sky130_fd_sc_hd__or2_1
*I *1076:S I *D sky130_fd_sc_hd__mux2_1
*I *1074:S I *D sky130_fd_sc_hd__mux2_1
*I *1070:S I *D sky130_fd_sc_hd__mux2_1
*I *1066:S I *D sky130_fd_sc_hd__mux2_1
*I *1068:S I *D sky130_fd_sc_hd__mux2_1
*I *953:X O *D sky130_fd_sc_hd__buf_6
*CAP
1 *1078:S 0
2 *954:A 1.92299e-05
3 *1072:S 0.000102164
4 *1111:B1 1.84575e-05
5 *1080:S 5.63165e-05
6 *1082:S 7.54453e-05
7 *1123:A 0.000487328
8 *1054:S 0.000150971
9 *1056:S 0
10 *1058:S 4.83277e-05
11 *1060:S 8.00362e-05
12 *1062:S 0
13 *1120:A 0.000819968
14 *1064:S 0
15 *1117:A 0.000204678
16 *1076:S 0.00021232
17 *1074:S 0
18 *1070:S 0.000114904
19 *1066:S 2.1239e-05
20 *1068:S 2.62275e-05
21 *953:X 0
22 *126:265 0.000900166
23 *126:242 0.0015295
24 *126:228 0.00149533
25 *126:202 0.000309065
26 *126:198 0.00146254
27 *126:177 0.00137572
28 *126:161 0.000484656
29 *126:157 0.000957225
30 *126:144 0.00070141
31 *126:69 0.000766112
32 *126:58 0.000867183
33 *126:54 0.000504886
34 *126:43 0.000434307
35 *126:32 0.000720883
36 *126:26 0.000933871
37 *126:22 0.00172005
38 *126:14 0.000623759
39 *126:10 0.00118046
40 *126:4 0.00122195
41 *954:A *1072:A0 5.12969e-06
42 *1054:S *1054:A1 4.89395e-05
43 *1054:S *1056:A0 7.77471e-05
44 *1054:S *1056:A1 0.00015856
45 *1058:S *1224:A 2.75229e-05
46 *1060:S *1060:A0 2.97561e-05
47 *1060:S *1060:A1 7.15381e-05
48 *1060:S *1199:A 0
49 *1060:S *239:59 0
50 *1060:S *324:70 0
51 *1066:S *1066:A0 5.83121e-06
52 *1066:S *1066:A1 4.89395e-05
53 *1066:S *1167:CLK 8.52972e-05
54 *1068:S *1039:A0 2.88357e-05
55 *1068:S *1068:A0 4.77769e-05
56 *1068:S *275:14 2.21074e-05
57 *1068:S *325:54 7.11301e-05
58 *1070:S *1070:A0 0.000160635
59 *1070:S *1070:A1 2.96334e-05
60 *1070:S *1154:RESET_B 2.75229e-05
61 *1072:S *1072:A0 0.000136901
62 *1076:S *1020:S 8.49205e-05
63 *1076:S *162:27 0.00019375
64 *1076:S *256:344 3.09164e-05
65 *1076:S *256:354 0.000153794
66 *1076:S *256:367 0.000175894
67 *1076:S *279:6 8.57024e-05
68 *1080:S *1175:RESET_B 6.81992e-05
69 *1082:S *1003:A1 0.000195326
70 *1082:S *294:14 2.98644e-05
71 *1082:S *360:12 7.03219e-05
72 *1117:A *1020:A1 0.000118527
73 *1117:A *1118:A 3.72916e-05
74 *1117:A *256:292 0
75 *1120:A *945:B 9.76522e-05
76 *1120:A *1062:A0 0.000185411
77 *1120:A *1121:A 5.06832e-05
78 *1120:A *1190:RESET_B 0.00015437
79 *1120:A *239:55 0
80 *1120:A *253:72 0
81 *1120:A *256:165 7.47737e-05
82 *1120:A *256:471 0.000112589
83 *1120:A *324:70 8.41686e-05
84 *1120:A *325:54 8.31074e-05
85 *1120:A *368:8 2.68721e-05
86 *1123:A *1123:B 8.64421e-05
87 *1123:A *1124:A 2.47221e-05
88 *1123:A *1174:CLK 3.59784e-05
89 *1123:A *1191:CLK 2.31329e-05
90 *1123:A *246:23 0
91 *126:10 *243:10 0.000234727
92 *126:14 *1062:A0 3.21772e-05
93 *126:22 *1062:A0 2.95026e-05
94 *126:22 *1062:A1 2.68464e-05
95 *126:22 *1063:A 1.08758e-05
96 *126:22 *253:72 0.00031186
97 *126:26 *1165:CLK 6.97202e-05
98 *126:26 *1165:RESET_B 9.7048e-06
99 *126:26 *256:165 4.21613e-06
100 *126:26 *256:169 7.46256e-05
101 *126:32 *1064:A1 9.50342e-06
102 *126:32 *1168:CLK 0
103 *126:32 *1168:RESET_B 0.000108322
104 *126:32 *256:171 5.16418e-05
105 *126:43 *1020:A1 0.000282666
106 *126:54 *1020:A1 0.000203133
107 *126:54 *256:292 0
108 *126:54 *256:461 7.96104e-06
109 *126:69 *1022:A1 0
110 *126:69 *1022:S 8.87444e-05
111 *126:69 *1070:A0 2.87867e-05
112 *126:69 *1154:RESET_B 0
113 *126:69 *162:27 4.43871e-06
114 *126:69 *256:292 0.000206824
115 *126:69 *256:318 0.000133075
116 *126:69 *256:330 0.000347614
117 *126:69 *256:337 0.00021364
118 *126:69 *256:344 0.000301349
119 *126:144 *1007:A1 0.000208976
120 *126:144 *1125:B 9.03066e-05
121 *126:144 *1163:RESET_B 6.52906e-05
122 *126:144 *1273:A 0
123 *126:144 *326:115 0.000158785
124 *126:157 *1007:A1 0.000272
125 *126:161 *1056:A0 2.21074e-05
126 *126:161 *1056:A1 4.89395e-05
127 *126:177 *928:B 0.000112589
128 *126:177 *932:A1 0.000229594
129 *126:177 *1007:A1 0.000288656
130 *126:198 *1005:A1 0
131 *126:198 *1174:CLK 0.000201478
132 *126:202 *1083:A 3.33839e-05
133 *126:202 *1175:RESET_B 4.27109e-05
134 *126:228 *1007:S 0.000101993
135 *126:228 *1078:A0 8.8266e-05
136 *126:228 *1078:A1 0
137 *126:228 *1083:A 9.16956e-05
138 *126:228 *1141:CLK 0.000101637
139 *126:228 *1231:A 0.000138175
140 *126:228 *154:33 8.98657e-05
141 *126:242 *929:A 8.64421e-05
142 *126:242 *941:A 0
143 *126:242 *1078:A0 4.82919e-05
144 *126:242 *1078:A1 9.50342e-06
145 *126:242 *1135:CLK 0.000189968
146 *126:242 *1173:RESET_B 0
147 *126:242 *1231:A 5.2089e-05
148 *126:242 *256:682 1.03755e-05
149 *126:242 *256:688 0
150 *126:242 *256:753 0
151 *126:265 *1072:A0 2.83579e-05
152 *126:265 *1106:A 9.09197e-05
153 *126:265 *1107:A2 0.0003802
154 *126:265 *1109:A2 1.59999e-05
155 *126:265 *1111:A1 0.00023635
156 *126:265 *139:55 4.60769e-05
157 *931:A1 *126:198 0
158 *931:A1 *126:228 0
159 *931:B2 *126:177 1.64056e-05
160 *932:B1 *126:177 6.03468e-05
161 *932:C1 *126:177 0.000289223
162 *945:A *1120:A 0.00013475
163 *950:A *1117:A 0.000200615
164 *951:D1 *1117:A 0.000122155
165 *1088:A1 *1076:S 3.77036e-05
166 *1110:A *126:265 9.12673e-05
167 *1140:D *126:228 0
168 *1168:D *126:32 3.47837e-05
169 *1174:D *1082:S 3.43305e-05
170 *1185:D *1111:B1 6.72833e-06
171 *1185:D *126:265 0.000159722
172 *93:100 *126:26 8.92676e-05
173 *93:100 *126:32 4.66108e-05
174 *93:219 *126:32 0
175 *97:33 *1123:A 0.000298883
176 *98:38 *1120:A 3.58098e-05
177 *99:22 *126:242 0.000302466
178 *99:59 *126:161 0.000112414
179 *99:69 *1120:A 0.000155489
180 *102:112 *1123:A 9.54469e-05
181 *119:14 *1120:A 0
182 *124:55 *1120:A 2.69217e-05
*RES
1 *953:X *126:4 1.6 
2 *126:4 *126:10 11.955 
3 *126:10 *126:14 4.425 
4 *126:14 *126:22 10.195 
5 *126:22 *126:26 6.93 
6 *126:26 *126:32 8.93 
7 *126:32 *1068:S 4.74 
8 *126:32 *126:43 5.97 
9 *126:43 *1066:S 4.395 
10 *126:43 *126:54 2.4 
11 *126:54 *126:58 4.865 
12 *126:58 *1070:S 4.12 
13 *126:58 *126:69 16.13 
14 *126:69 *1074:S 3.6 
15 *126:69 *1076:S 9.96 
16 *126:54 *1117:A 8.82 
17 *126:26 *1064:S 1.6 
18 *126:22 *1120:A 22.025 
19 *126:14 *1062:S 1.6 
20 *126:10 *1060:S 7.235 
21 *126:4 *126:144 10.4 
22 *126:144 *1058:S 4.41 
23 *126:144 *126:157 5.715 
24 *126:157 *126:161 7.625 
25 *126:161 *1056:S 1.6 
26 *126:161 *1054:S 4.81 
27 *126:157 *126:177 11.795 
28 *126:177 *1123:A 12.8 
29 *126:177 *126:198 9.245 
30 *126:198 *126:202 4.865 
31 *126:202 *1082:S 8 
32 *126:202 *1080:S 2.74 
33 *126:198 *126:228 17.315 
34 *126:228 *126:242 17.995 
35 *126:242 *1111:B1 2.05 
36 *126:242 *126:265 17.71 
37 *126:265 *1072:S 3.775 
38 *126:265 *954:A 1.96 
39 *126:228 *1078:S 1.6 
*END

*D_NET *127 0.0067919
*CONN
*I *1108:C1 I *D sky130_fd_sc_hd__o211a_1
*I *1102:A I *D sky130_fd_sc_hd__and3_1
*I *1113:A I *D sky130_fd_sc_hd__nand2_1
*I *1115:A I *D sky130_fd_sc_hd__nand2_1
*I *955:C I *D sky130_fd_sc_hd__and3b_1
*I *968:B1 I *D sky130_fd_sc_hd__o21ai_1
*I *954:Y O *D sky130_fd_sc_hd__inv_2
*CAP
1 *1108:C1 0
2 *1102:A 0.000142048
3 *1113:A 0.00015421
4 *1115:A 4.08499e-05
5 *955:C 0.000228979
6 *968:B1 4.26501e-05
7 *954:Y 0.000253919
8 *127:61 0.000527661
9 *127:28 0.000899119
10 *127:22 0.000721181
11 *127:20 0.000588332
12 *127:16 0.000558008
13 *968:B1 *1186:CLK 0.000112589
14 *968:B1 *219:22 0.000136804
15 *1102:A *1100:C 4.66108e-05
16 *1102:A *1188:CLK 3.87203e-05
17 *1113:A *1112:A1 0.000119873
18 *1113:A *1115:B 0
19 *1113:A *1203:A 0.000121032
20 *1113:A *129:59 9.12494e-06
21 *1113:A *139:23 6.61094e-05
22 *1113:A *219:28 0.000185398
23 *127:16 *1092:A1 2.62303e-05
24 *127:16 *1104:A 1.69154e-05
25 *127:16 *1108:A2 4.6075e-05
26 *127:16 *1108:B1 1.77945e-05
27 *127:16 *361:8 7.14241e-05
28 *127:20 *1092:A1 0.000206907
29 *127:20 *1104:B 5.0096e-05
30 *127:20 *219:45 0
31 *127:22 *1092:A1 5.98004e-06
32 *127:28 *1091:A2 6.70964e-05
33 *127:28 *1092:A1 4.06643e-05
34 *127:28 *1114:B1 7.28345e-05
35 *127:28 *1115:B 0
36 *127:28 *129:59 0
37 *127:28 *135:21 2.45547e-05
38 *127:28 *239:18 3.84918e-06
39 *127:61 *1100:C 4.66108e-05
40 *127:61 *1188:CLK 7.94582e-05
41 *955:A_N *955:C 2.69153e-05
42 *1100:A *1113:A 0.000163012
43 *1100:A *127:20 0
44 *1100:A *127:22 0
45 *1100:A *127:28 0
46 *1188:D *1115:A 5.05521e-05
47 *1188:D *127:20 2.30797e-05
48 *1188:D *127:22 7.23602e-05
49 *98:18 *1115:A 5.05521e-05
50 *98:18 *127:28 0.000137895
51 *98:30 *127:28 0.000278868
52 *99:134 *127:20 7.61187e-05
53 *115:22 *127:28 9.03066e-05
54 *116:10 *127:28 5.25343e-05
*RES
1 *954:Y *127:16 10.13 
2 *127:16 *127:20 8.99 
3 *127:20 *127:22 1.125 
4 *127:22 *127:28 12.8 
5 *127:28 *968:B1 7.235 
6 *127:28 *955:C 4.12 
7 *127:22 *1115:A 4.755 
8 *127:20 *127:61 4.865 
9 *127:61 *1113:A 10.415 
10 *127:61 *1102:A 3.445 
11 *127:16 *1108:C1 1.6 
*END

*D_NET *128 0.000806241
*CONN
*I *956:A I *D sky130_fd_sc_hd__clkbuf_4
*I *955:X O *D sky130_fd_sc_hd__and3b_1
*CAP
1 *956:A 0.000188577
2 *955:X 0.000188577
3 *956:A *955:B 0.000172084
4 *956:A *1122:A2 0.0001249
5 *956:A *373:12 0
6 *956:A *373:24 5.53249e-06
7 *967:A1 *956:A 0.00012657
*RES
1 *955:X *956:A 12.015 
*END

*D_NET *129 0.00646524
*CONN
*I *1112:A1 I *D sky130_fd_sc_hd__o21ai_1
*I *1114:A1 I *D sky130_fd_sc_hd__o21ai_1
*I *968:A1 I *D sky130_fd_sc_hd__o21ai_1
*I *1116:A1 I *D sky130_fd_sc_hd__o31a_1
*I *1119:A1 I *D sky130_fd_sc_hd__o31a_1
*I *957:Y O *D sky130_fd_sc_hd__inv_2
*CAP
1 *1112:A1 0.000102787
2 *1114:A1 0
3 *968:A1 0
4 *1116:A1 0.000452735
5 *1119:A1 0.000141474
6 *957:Y 0.000231233
7 *129:59 0.000290602
8 *129:48 0.000439392
9 *129:18 0.000924246
10 *129:10 0.000812847
11 *1112:A1 *936:B_N 0.000174569
12 *1112:A1 *1113:B 2.69217e-05
13 *1112:A1 *1203:A 8.54987e-05
14 *1116:A1 *1116:A2 2.07053e-05
15 *1119:A1 *1094:B1 4.82919e-05
16 *1119:A1 *137:42 7.06865e-05
17 *1119:A1 *239:55 3.67779e-05
18 *129:10 *967:B1 7.23533e-05
19 *129:10 *1202:A 0.000153482
20 *129:10 *373:24 4.29107e-05
21 *129:18 *1091:A2 7.21296e-06
22 *129:18 *1202:A 0.000347911
23 *129:18 *137:42 0.000107634
24 *129:18 *239:18 4.82919e-05
25 *129:18 *239:51 4.82863e-05
26 *129:18 *239:55 5.02217e-05
27 *129:48 *967:B1 0.000109989
28 *129:48 *967:C1 9.11536e-05
29 *129:48 *139:10 0.000137124
30 *129:59 *964:B2 1.88602e-05
31 *129:59 *967:C1 0.000155044
32 *129:59 *1114:A2 0.000113891
33 *129:59 *135:21 0
34 *129:59 *139:10 9.12494e-06
35 *129:59 *139:23 0.000423729
36 *948:A1 *1119:A1 1.8214e-05
37 *955:A_N *129:48 1.1688e-05
38 *958:A_N *1116:A1 5.83121e-06
39 *958:C *1116:A1 7.5531e-05
40 *958:C *129:10 7.58604e-05
41 *1113:A *1112:A1 0.000119873
42 *1113:A *129:59 9.12494e-06
43 *1116:A3 *1116:A1 4.66108e-05
44 *30:22 *129:48 6.00963e-06
45 *115:22 *129:59 7.27704e-06
46 *116:18 *1119:A1 1.03423e-05
47 *124:23 *1116:A1 0.000221426
48 *125:10 *129:10 1.44259e-05
49 *125:10 *129:48 4.70343e-05
50 *127:28 *129:59 0
*RES
1 *957:Y *129:10 8.37 
2 *129:10 *129:18 9.28 
3 *129:18 *1119:A1 6.135 
4 *129:18 *1116:A1 9.405 
5 *129:10 *129:48 5.265 
6 *129:48 *968:A1 3.6 
7 *129:48 *129:59 7.97 
8 *129:59 *1114:A1 1.6 
9 *129:59 *1112:A1 4.84 
*END

*D_NET *130 0.00719941
*CONN
*I *1097:A1 I *D sky130_fd_sc_hd__mux2_1
*I *967:A2 I *D sky130_fd_sc_hd__o2111a_2
*I *1122:A2 I *D sky130_fd_sc_hd__a21oi_1
*I *958:X O *D sky130_fd_sc_hd__and4b_1
*CAP
1 *1097:A1 0.00116334
2 *967:A2 0
3 *1122:A2 0.000182637
4 *958:X 0.000195785
5 *130:18 0.000610491
6 *130:10 0.00178698
7 *1097:A1 *137:10 0.000157858
8 *1097:A1 *253:40 0.000147246
9 *1122:A2 *219:22 3.7712e-05
10 *130:10 *1116:A2 7.23602e-05
11 *130:10 *137:10 0.000111378
12 *130:10 *253:40 0.000164681
13 *130:10 *376:8 7.14241e-05
14 *130:18 *966:B1 5.83121e-06
15 *130:18 *967:C1 1.61831e-05
16 *130:18 *967:D1 0.000618866
17 *130:18 *139:10 0.000122337
18 *130:18 *219:22 8.65905e-05
19 *956:A *1122:A2 0.0001249
20 *967:A1 *1122:A2 0.000229348
21 *30:22 *1097:A1 0.000765115
22 *30:22 *1122:A2 0.000461941
23 *30:82 *1122:A2 4.40506e-05
24 *124:23 *130:10 2.23542e-05
*RES
1 *958:X *130:10 7.23 
2 *130:10 *130:18 10.16 
3 *130:18 *1122:A2 7.945 
4 *130:18 *967:A2 1.6 
5 *130:10 *1097:A1 24.225 
*END

*D_NET *131 0.0010232
*CONN
*I *1276:A I *D sky130_fd_sc_hd__clkbuf_1
*I *959:Y O *D sky130_fd_sc_hd__a2111oi_1
*CAP
1 *1276:A 0.000243051
2 *959:Y 0.000243051
3 *1276:A *1181:RESET_B 0.000134505
4 *98:53 *1276:A 0.000122817
5 *120:22 *1276:A 0.000279775
*RES
1 *959:Y *1276:A 12.795 
*END

*D_NET *132 0.000544743
*CONN
*I *961:B1 I *D sky130_fd_sc_hd__a31o_1
*I *960:Y O *D sky130_fd_sc_hd__inv_2
*CAP
1 *961:B1 9.97916e-05
2 *960:Y 9.97916e-05
3 *961:B1 *1094:B1 0
4 *961:B1 *377:27 0.00014262
5 *952:B *961:B1 3.74161e-05
6 *961:A1 *961:B1 0.000118513
7 *116:18 *961:B1 4.66108e-05
*RES
1 *960:Y *961:B1 9.63 
*END

*D_NET *133 0.00121815
*CONN
*I *967:B1 I *D sky130_fd_sc_hd__o2111a_2
*I *961:X O *D sky130_fd_sc_hd__a31o_1
*CAP
1 *967:B1 0.000269819
2 *961:X 0.000269819
3 *967:B1 *967:C1 0
4 *967:B1 *1091:A2 0
5 *967:B1 *1094:B1 0.000183695
6 *967:B1 *266:16 1.64067e-05
7 *958:A_N *967:B1 0.000116165
8 *958:C *967:B1 9.13462e-05
9 *120:22 *967:B1 2.93309e-05
10 *120:33 *967:B1 5.92269e-05
11 *129:10 *967:B1 7.23533e-05
12 *129:48 *967:B1 0.000109989
*RES
1 *961:X *967:B1 13.68 
*END

*D_NET *134 0.0029563
*CONN
*I *1112:A2 I *D sky130_fd_sc_hd__o21ai_1
*I *964:A2 I *D sky130_fd_sc_hd__a22oi_1
*I *962:Y O *D sky130_fd_sc_hd__nand3_1
*CAP
1 *1112:A2 0
2 *964:A2 0.000219631
3 *962:Y 0.000681857
4 *134:12 0.000901488
5 *964:A2 *964:A1 0.000123672
6 *964:A2 *1113:B 5.31158e-06
7 *134:12 *1112:B1 0.000236541
8 *134:12 *1113:B 1.79174e-05
9 *134:12 *1191:RESET_B 0.000178444
10 *134:12 *1203:A 0.000197862
11 *134:12 *246:46 7.03219e-05
12 *134:12 *256:720 0.000105393
13 *942:C *134:12 4.90272e-05
14 *962:C *134:12 6.23541e-06
15 *1187:D *964:A2 4.58691e-05
16 *114:8 *134:12 3.87166e-05
17 *115:14 *964:A2 7.80073e-05
*RES
1 *962:Y *134:12 18.785 
2 *134:12 *964:A2 9.845 
3 *134:12 *1112:A2 1.6 
*END

*D_NET *135 0.00112366
*CONN
*I *1114:A2 I *D sky130_fd_sc_hd__o21ai_1
*I *964:B1 I *D sky130_fd_sc_hd__a22oi_1
*I *1091:B1 I *D sky130_fd_sc_hd__o21ai_1
*I *963:Y O *D sky130_fd_sc_hd__nand3b_1
*CAP
1 *1114:A2 6.38635e-05
2 *964:B1 4.87195e-05
3 *1091:B1 1.67024e-05
4 *963:Y 0.000113919
5 *135:21 0.000263742
6 *135:6 0.00028178
7 *964:B1 *964:A1 1.60668e-05
8 *135:6 *1092:A1 8.92729e-05
9 *135:21 *964:B2 2.91134e-05
10 *135:21 *1092:A1 6.72833e-06
11 *938:C1 *135:6 2.69217e-05
12 *1091:A1 *1091:B1 1.04769e-05
13 *115:14 *964:B1 1.79098e-05
14 *127:28 *135:21 2.45547e-05
15 *129:59 *1114:A2 0.000113891
16 *129:59 *135:21 0
*RES
1 *963:Y *135:6 3.775 
2 *135:6 *1091:B1 1.96 
3 *135:6 *135:21 4.55 
4 *135:21 *964:B1 4.41 
5 *135:21 *1114:A2 4.98 
*END

*D_NET *136 0.00115044
*CONN
*I *967:C1 I *D sky130_fd_sc_hd__o2111a_2
*I *964:Y O *D sky130_fd_sc_hd__a22oi_1
*CAP
1 *967:C1 0.000249443
2 *964:Y 0.000249443
3 *967:C1 *967:D1 5.05521e-05
4 *967:C1 *1091:A2 0.000201934
5 *967:B1 *967:C1 0
6 *115:22 *967:C1 0.000136685
7 *129:48 *967:C1 9.11536e-05
8 *129:59 *967:C1 0.000155044
9 *130:18 *967:C1 1.61831e-05
*RES
1 *964:Y *967:C1 14.31 
*END

*D_NET *137 0.00446611
*CONN
*I *1094:B1 I *D sky130_fd_sc_hd__a21oi_1
*I *1119:A2 I *D sky130_fd_sc_hd__o31a_1
*I *966:A1 I *D sky130_fd_sc_hd__o21ai_1
*I *1116:A2 I *D sky130_fd_sc_hd__o31a_1
*I *965:X O *D sky130_fd_sc_hd__a21o_1
*CAP
1 *1094:B1 0.000275072
2 *1119:A2 0
3 *966:A1 3.7793e-05
4 *1116:A2 0.000120838
5 *965:X 0.000298642
6 *137:42 0.000602598
7 *137:27 0.000430429
8 *137:10 0.00048459
9 *1094:B1 *960:A 9.4087e-05
10 *1094:B1 *961:A2 4.60814e-05
11 *1094:B1 *1095:A1 1.14192e-05
12 *1094:B1 *1119:A3 0.000122325
13 *1094:B1 *1119:B1 2.05056e-05
14 *1094:B1 *213:20 0.000199833
15 *1094:B1 *266:16 0
16 *1116:A2 *948:B1 4.1652e-06
17 *1116:A2 *1116:B1 4.82919e-05
18 *1116:A2 *253:40 7.49608e-05
19 *1116:A2 *376:8 2.09283e-05
20 *137:10 *253:40 5.3393e-05
21 *137:27 *967:D1 3.16409e-05
22 *137:42 *967:D1 9.38276e-05
23 *137:42 *1091:A2 0
24 *137:42 *239:55 7.21296e-06
25 *958:A_N *1094:B1 3.09164e-05
26 *958:D *1116:A2 0
27 *961:A1 *1094:B1 5.42386e-05
28 *961:A3 *1094:B1 3.5678e-06
29 *961:B1 *1094:B1 0
30 *966:A2 *137:10 0
31 *967:B1 *1094:B1 0.000183695
32 *1097:A1 *137:10 0.000157858
33 *1116:A1 *1116:A2 2.07053e-05
34 *1116:A3 *1116:A2 4.66108e-05
35 *1119:A1 *1094:B1 4.82919e-05
36 *1119:A1 *137:42 7.06865e-05
37 *98:30 *137:10 0
38 *108:21 *137:10 1.29371e-05
39 *115:28 *137:10 8.58181e-05
40 *116:10 *137:42 0.000114492
41 *116:18 *1094:B1 1.61831e-05
42 *116:18 *137:42 0.000157595
43 *124:23 *1116:A2 4.82919e-05
44 *124:63 *1094:B1 4.42148e-05
45 *129:18 *137:42 0.000107634
46 *130:10 *1116:A2 7.23602e-05
47 *130:10 *137:10 0.000111378
*RES
1 *965:X *137:10 8.925 
2 *137:10 *1116:A2 6.48 
3 *137:10 *137:27 2.795 
4 *137:27 *966:A1 2.215 
5 *137:27 *137:42 9.685 
6 *137:42 *1119:A2 1.6 
7 *137:42 *1094:B1 13.175 
*END

*D_NET *138 0.00124665
*CONN
*I *967:D1 I *D sky130_fd_sc_hd__o2111a_2
*I *966:Y O *D sky130_fd_sc_hd__o21ai_1
*CAP
1 *967:D1 0.000223317
2 *966:Y 0.000223317
3 *967:D1 *966:B1 5.13174e-06
4 *967:C1 *967:D1 5.05521e-05
5 *130:18 *967:D1 0.000618866
6 *137:27 *967:D1 3.16409e-05
7 *137:42 *967:D1 9.38276e-05
*RES
1 *966:Y *967:D1 9.53 
*END

*D_NET *139 0.00648008
*CONN
*I *1107:B1 I *D sky130_fd_sc_hd__a211o_1
*I *1110:B I *D sky130_fd_sc_hd__or4_1
*I *1109:A1 I *D sky130_fd_sc_hd__o31ai_1
*I *1104:A I *D sky130_fd_sc_hd__nor2_1
*I *1100:B I *D sky130_fd_sc_hd__or3_1
*I *1101:A1 I *D sky130_fd_sc_hd__o21ai_1
*I *968:A2 I *D sky130_fd_sc_hd__o21ai_1
*I *967:X O *D sky130_fd_sc_hd__o2111a_2
*CAP
1 *1107:B1 7.25881e-05
2 *1110:B 0.000116302
3 *1109:A1 0
4 *1104:A 0.000349031
5 *1100:B 3.98087e-05
6 *1101:A1 9.22205e-06
7 *968:A2 0
8 *967:X 0.000126644
9 *139:79 0.000282357
10 *139:55 0.000478631
11 *139:47 0.000313856
12 *139:36 0.000195975
13 *139:23 0.000357854
14 *139:10 0.000409899
15 *1100:B *1188:CLK 2.49909e-05
16 *1104:A *1104:B 0.000269343
17 *1104:A *1108:A2 2.21074e-05
18 *1104:A *219:45 5.53249e-06
19 *1104:A *219:60 6.67054e-05
20 *1107:B1 *1107:A2 5.011e-05
21 *1107:B1 *1110:D 4.77807e-05
22 *1107:B1 *219:77 4.77807e-05
23 *1110:B *219:77 3.83194e-05
24 *139:10 *219:22 0.000137124
25 *139:23 *936:B_N 0.000102732
26 *139:23 *219:22 0.000561429
27 *139:23 *219:28 7.47215e-05
28 *139:23 *355:84 3.29528e-05
29 *139:36 *219:28 0.000127373
30 *139:36 *219:45 9.61414e-05
31 *139:36 *355:84 0.000225182
32 *139:47 *219:45 0.000153492
33 *139:47 *224:10 7.23602e-05
34 *139:47 *355:84 0.000139933
35 *139:55 *1109:A2 2.91343e-05
36 *139:55 *1111:A1 7.00889e-06
37 *139:79 *1107:A2 7.03276e-05
38 *139:79 *224:10 2.42236e-05
39 *139:79 *224:25 3.67658e-05
40 *1101:B1 *1101:A1 6.49594e-06
41 *1109:B1 *139:55 1.62201e-05
42 *1110:A *1107:B1 2.22596e-05
43 *1110:A *1110:B 8.53011e-05
44 *1110:A *139:79 0.000163953
45 *1113:A *139:23 6.61094e-05
46 *98:8 *1101:A1 2.31464e-05
47 *99:134 *1104:A 6.73329e-05
48 *102:30 *1107:B1 0
49 *102:30 *139:47 4.38568e-05
50 *102:30 *139:79 1.43602e-05
51 *126:265 *139:55 4.60769e-05
52 *127:16 *1104:A 1.69154e-05
53 *129:48 *139:10 0.000137124
54 *129:59 *139:10 9.12494e-06
55 *129:59 *139:23 0.000423729
56 *130:18 *139:10 0.000122337
*RES
1 *967:X *139:10 6.375 
2 *139:10 *968:A2 3.6 
3 *139:10 *139:23 9.165 
4 *139:23 *1101:A1 3.85125 
5 *139:23 *139:36 2.655 
6 *139:36 *1100:B 4.05 
7 *139:36 *139:47 2.91 
8 *139:47 *139:55 4.205 
9 *139:55 *1104:A 11.315 
10 *139:55 *1109:A1 1.6 
11 *139:47 *139:79 2.595 
12 *139:79 *1110:B 5.085 
13 *139:79 *1107:B1 5.475 
*END

*D_NET *140 0.00068241
*CONN
*I *973:A1 I *D sky130_fd_sc_hd__a22o_1
*I *974:A1 I *D sky130_fd_sc_hd__o221a_2
*I *969:Y O *D sky130_fd_sc_hd__inv_2
*CAP
1 *973:A1 0.000101508
2 *974:A1 1.85725e-05
3 *969:Y 9.77032e-05
4 *140:10 0.000217784
5 *973:A1 *973:A2 9.07793e-05
6 *973:A1 *974:B1 1.37328e-05
7 *973:A1 *145:10 4.99619e-05
8 *974:A1 *973:A2 4.82863e-05
9 *140:10 *1273:A 0
10 *140:10 *255:35 4.40812e-05
*RES
1 *969:Y *140:10 7.235 
2 *140:10 *974:A1 2.05 
3 *140:10 *973:A1 3.79 
*END

*D_NET *141 0.00276728
*CONN
*I *973:B2 I *D sky130_fd_sc_hd__a22o_1
*I *972:A2 I *D sky130_fd_sc_hd__o211a_1
*I *970:Y O *D sky130_fd_sc_hd__inv_2
*CAP
1 *973:B2 0.00031851
2 *972:A2 0.00058018
3 *970:Y 0
4 *141:4 0.00089869
5 *972:A2 *972:A1 0.000155272
6 *972:A2 *972:B1 9.12671e-06
7 *972:A2 *1043:S 0.000164112
8 *972:A2 *1156:CLK 0.000140647
9 *972:A2 *324:18 0.000110639
10 *972:A2 *325:97 4.53873e-05
11 *973:B2 *1046:A 0.000184098
12 *973:B2 *254:10 8.8266e-05
13 *973:B2 *254:14 0
14 *1156:D *973:B2 7.23533e-05
*RES
1 *970:Y *141:4 1.6 
2 *141:4 *972:A2 15.56 
3 *141:4 *973:B2 11.855 
*END

*D_NET *142 0.000863084
*CONN
*I *972:C1 I *D sky130_fd_sc_hd__o211a_1
*I *971:Y O *D sky130_fd_sc_hd__inv_2
*CAP
1 *972:C1 0.000203999
2 *971:Y 0.000203999
3 *972:C1 *971:A 7.15997e-05
4 *972:C1 *972:B1 4.77807e-05
5 *972:C1 *1043:S 1.56428e-05
6 *972:C1 *1273:A 0.000302146
7 *972:C1 *325:97 1.79174e-05
*RES
1 *971:Y *972:C1 11.775 
*END

*D_NET *143 0.000318331
*CONN
*I *974:B1 I *D sky130_fd_sc_hd__o221a_2
*I *972:X O *D sky130_fd_sc_hd__o211a_1
*CAP
1 *974:B1 0.000136019
2 *972:X 0.000136019
3 *974:B1 *973:A2 1.08758e-05
4 *974:B1 *974:B2 2.16833e-05
5 *974:B1 *1273:A 0
6 *974:B1 *145:10 0
7 *973:A1 *974:B1 1.37328e-05
*RES
1 *972:X *974:B1 9.48375 
*END

*D_NET *144 0.000499191
*CONN
*I *974:B2 I *D sky130_fd_sc_hd__o221a_2
*I *973:X O *D sky130_fd_sc_hd__a22o_1
*CAP
1 *974:B2 0.000139282
2 *973:X 0.000139282
3 *974:B2 *973:A2 0.000198945
4 *974:B1 *974:B2 2.16833e-05
*RES
1 *973:X *974:B2 5.735 
*END

*D_NET *145 0.00548562
*CONN
*I *975:S I *D sky130_fd_sc_hd__mux2_1
*I *977:S I *D sky130_fd_sc_hd__mux2_1
*I *979:S I *D sky130_fd_sc_hd__mux2_1
*I *1045:S I *D sky130_fd_sc_hd__mux2_1
*I *1043:S I *D sky130_fd_sc_hd__mux2_1
*I *974:X O *D sky130_fd_sc_hd__o221a_2
*CAP
1 *975:S 0.00014497
2 *977:S 0
3 *979:S 0.000299148
4 *1045:S 0
5 *1043:S 0.000451381
6 *974:X 0.000197116
7 *145:55 0.000500525
8 *145:40 0.000800372
9 *145:12 0.000451381
10 *145:10 0.000342784
11 *975:S *1003:A1 9.07315e-05
12 *975:S *1054:A1 4.77757e-05
13 *975:S *300:6 8.64421e-05
14 *979:S *979:A0 0.000198939
15 *1043:S *972:B1 3.25525e-05
16 *1043:S *1043:A0 2.08971e-05
17 *1043:S *1155:RESET_B 4.12995e-05
18 *1043:S *1236:A 4.66108e-05
19 *145:10 *1156:CLK 8.54612e-05
20 *145:10 *1156:RESET_B 0.000200605
21 *145:10 *254:14 0
22 *145:40 *1156:CLK 9.99317e-05
23 *145:40 *1156:RESET_B 5.34461e-05
24 *145:40 *256:38 0.000153443
25 *145:40 *256:40 0.000340692
26 *145:40 *325:97 0.00035468
27 *145:55 *976:A 4.05358e-05
28 *145:55 *1003:A1 3.09164e-05
29 *145:55 *256:36 0
30 *145:55 *256:38 0
31 *145:55 *324:106 0
32 *972:A2 *1043:S 0.000164112
33 *972:C1 *1043:S 1.56428e-05
34 *973:A1 *145:10 4.99619e-05
35 *974:B1 *145:10 0
36 *1131:D *145:55 0.000143266
*RES
1 *974:X *145:10 7.47 
2 *145:10 *145:12 2 
3 *145:12 *1043:S 12.395 
4 *145:12 *1045:S 1.6 
5 *145:10 *145:40 8.48 
6 *145:40 *979:S 6.535 
7 *145:40 *145:55 10.015 
8 *145:55 *977:S 1.6 
9 *145:55 *975:S 4.465 
*END

*D_NET *146 0.000463737
*CONN
*I *976:A I *D sky130_fd_sc_hd__clkbuf_1
*I *975:X O *D sky130_fd_sc_hd__mux2_1
*CAP
1 *976:A 0.000197207
2 *975:X 0.000197207
3 *976:A *324:106 2.87867e-05
4 *145:55 *976:A 4.05358e-05
*RES
1 *975:X *976:A 10.515 
*END

*D_NET *147 0.000176582
*CONN
*I *978:A I *D sky130_fd_sc_hd__clkbuf_1
*I *977:X O *D sky130_fd_sc_hd__mux2_1
*CAP
1 *978:A 8.8291e-05
2 *977:X 8.8291e-05
3 *978:A *1224:A 0
*RES
1 *977:X *978:A 4.61 
*END

*D_NET *148 0.00123996
*CONN
*I *980:A I *D sky130_fd_sc_hd__clkbuf_1
*I *979:X O *D sky130_fd_sc_hd__mux2_1
*CAP
1 *980:A 0.00059584
2 *979:X 0.00059584
3 *980:A *1059:A 9.09788e-06
4 *980:A *1164:CLK 0
5 *980:A *242:10 2.87672e-05
6 *980:A *242:86 1.04124e-05
*RES
1 *979:X *980:A 14.325 
*END

*D_NET *149 0.000990652
*CONN
*I *985:A1 I *D sky130_fd_sc_hd__a22o_1
*I *986:A1 I *D sky130_fd_sc_hd__o221a_2
*I *981:Y O *D sky130_fd_sc_hd__inv_2
*CAP
1 *985:A1 0
2 *986:A1 0.000239027
3 *981:Y 0.000132788
4 *149:6 0.000371815
5 *986:A1 *985:A2 4.77719e-05
6 *986:A1 *986:A2 3.36583e-05
7 *986:A1 *986:B1 1.12643e-05
8 *986:A1 *986:B2 5.72783e-05
9 *986:A1 *154:21 2.65814e-06
10 *149:6 *985:B2 4.66108e-05
11 *986:C1 *986:A1 4.77807e-05
*RES
1 *981:Y *149:6 3.43 
2 *149:6 *986:A1 5.515 
3 *149:6 *985:A1 1.6 
*END

*D_NET *150 0.0011555
*CONN
*I *985:B1 I *D sky130_fd_sc_hd__a22o_1
*I *984:A1 I *D sky130_fd_sc_hd__o211a_1
*I *982:Y O *D sky130_fd_sc_hd__inv_2
*CAP
1 *985:B1 0.000288052
2 *984:A1 0.000137916
3 *982:Y 0
4 *150:4 0.000425968
5 *984:A1 *982:A 9.12671e-06
6 *984:A1 *984:A2 4.89395e-05
7 *984:A1 *986:B1 2.86767e-05
8 *985:B1 *985:B2 0.000138106
9 *985:B1 *986:B1 4.89395e-05
10 *985:B1 *281:29 2.97746e-05
*RES
1 *982:Y *150:4 1.6 
2 *150:4 *984:A1 4.045 
3 *150:4 *985:B1 10.46 
*END

*D_NET *151 0.000329434
*CONN
*I *984:C1 I *D sky130_fd_sc_hd__o211a_1
*I *983:Y O *D sky130_fd_sc_hd__inv_2
*CAP
1 *984:C1 0.000149969
2 *983:Y 0.000149969
3 *984:C1 *984:A2 3.5678e-06
4 *984:C1 *1134:RESET_B 2.59285e-05
*RES
1 *983:Y *984:C1 9.84 
*END

*D_NET *152 0.00052005
*CONN
*I *986:B1 I *D sky130_fd_sc_hd__o221a_2
*I *984:X O *D sky130_fd_sc_hd__o211a_1
*CAP
1 *986:B1 0.000180029
2 *984:X 0.000180029
3 *986:B1 *986:B2 1.12643e-05
4 *986:B1 *1136:CLK 5.15164e-05
5 *984:A1 *986:B1 2.86767e-05
6 *985:B1 *986:B1 4.89395e-05
7 *986:A1 *986:B1 1.12643e-05
8 *986:C1 *986:B1 8.33066e-06
*RES
1 *984:X *986:B1 10.0837 
*END

*D_NET *153 0.000328201
*CONN
*I *986:B2 I *D sky130_fd_sc_hd__o221a_2
*I *985:X O *D sky130_fd_sc_hd__a22o_1
*CAP
1 *986:B2 5.12537e-05
2 *985:X 5.12537e-05
3 *986:B2 *986:A2 0.000108212
4 *986:A1 *986:B2 5.72783e-05
5 *986:B1 *986:B2 1.12643e-05
6 *986:C1 *986:B2 4.89395e-05
*RES
1 *985:X *986:B2 5.045 
*END

*D_NET *154 0.00492132
*CONN
*I *989:S I *D sky130_fd_sc_hd__mux2_1
*I *1003:S I *D sky130_fd_sc_hd__mux2_1
*I *1005:S I *D sky130_fd_sc_hd__mux2_1
*I *1007:S I *D sky130_fd_sc_hd__mux2_1
*I *987:S I *D sky130_fd_sc_hd__mux2_1
*I *986:X O *D sky130_fd_sc_hd__o221a_2
*CAP
1 *989:S 0
2 *1003:S 3.83225e-05
3 *1005:S 0
4 *1007:S 0.000289013
5 *987:S 0.000241296
6 *986:X 0
7 *154:33 0.000503827
8 *154:27 0.000450699
9 *154:21 0.000422785
10 *154:4 0.000466519
11 *987:S *984:B1 0.000148919
12 *987:S *986:A2 3.5678e-06
13 *987:S *987:A1 0.00011578
14 *1003:S *1078:A1 4.00541e-06
15 *1003:S *302:6 2.30292e-05
16 *1007:S *1005:A1 0.000305796
17 *1007:S *1007:A0 0.000232985
18 *1007:S *1083:A 5.20249e-05
19 *1007:S *1141:CLK 0.000181006
20 *154:21 *984:A2 0.000273596
21 *154:21 *1136:CLK 0.000445471
22 *154:21 *1140:CLK 9.50342e-06
23 *154:27 *984:A2 7.23602e-05
24 *154:27 *1140:CLK 0.000136182
25 *154:33 *1003:A1 0
26 *154:33 *1005:A1 5.53249e-06
27 *154:33 *1078:A1 0.0001249
28 *154:33 *302:6 4.60584e-05
29 *986:A1 *154:21 2.65814e-06
30 *1140:D *154:27 4.70343e-05
31 *1140:D *154:33 8.65961e-05
32 *126:228 *1007:S 0.000101993
33 *126:228 *154:33 8.98657e-05
*RES
1 *986:X *154:4 1.6 
2 *154:4 *987:S 5.875 
3 *154:4 *154:21 7.91 
4 *154:21 *154:27 6.035 
5 *154:27 *154:33 6.485 
6 *154:33 *1007:S 11.745 
7 *154:33 *1005:S 3.6 
8 *154:27 *1003:S 2.41 
9 *154:21 *989:S 3.6 
*END

*D_NET *155 0.000217252
*CONN
*I *988:A I *D sky130_fd_sc_hd__clkbuf_1
*I *987:X O *D sky130_fd_sc_hd__mux2_1
*CAP
1 *988:A 0.000108626
2 *987:X 0.000108626
*RES
1 *987:X *988:A 4.955 
*END

*D_NET *156 0.000900005
*CONN
*I *990:A I *D sky130_fd_sc_hd__clkbuf_1
*I *989:X O *D sky130_fd_sc_hd__mux2_1
*CAP
1 *990:A 0.000253642
2 *989:X 0.000253642
3 *990:A *1134:RESET_B 0.000114649
4 *990:A *1173:RESET_B 0.000178946
5 *990:A *247:62 9.91257e-05
*RES
1 *989:X *990:A 12.105 
*END

*D_NET *157 0.00152721
*CONN
*I *996:A1 I *D sky130_fd_sc_hd__a22o_1
*I *997:A1 I *D sky130_fd_sc_hd__o221a_2
*I *992:Y O *D sky130_fd_sc_hd__inv_2
*CAP
1 *996:A1 0.000260335
2 *997:A1 0.000252255
3 *992:Y 0
4 *157:6 0.00051259
5 *996:A1 *992:A 5.53249e-06
6 *996:A1 *996:B1 4.82919e-05
7 *996:A1 *996:B2 0.000163204
8 *996:A1 *1239:A 0
9 *997:A1 *992:A 4.2815e-05
10 *997:A1 *994:A 0
11 *997:A1 *995:C1 2.59285e-05
12 *997:A1 *996:B1 0.000196073
13 *997:A1 *997:B1 2.0187e-05
*RES
1 *992:Y *157:6 3.6 
2 *157:6 *997:A1 8.43 
3 *157:6 *996:A1 8.01 
*END

*D_NET *158 0.00195291
*CONN
*I *996:B1 I *D sky130_fd_sc_hd__a22o_1
*I *995:A1 I *D sky130_fd_sc_hd__o211a_1
*I *993:Y O *D sky130_fd_sc_hd__inv_2
*CAP
1 *996:B1 0.000249004
2 *995:A1 5.66048e-05
3 *993:Y 0
4 *158:4 0.000305609
5 *995:A1 *995:A2 3.12916e-05
6 *995:A1 *995:C1 0.000111391
7 *995:A1 *996:B2 8.52972e-05
8 *995:A1 *997:B1 8.46818e-05
9 *995:A1 *162:6 1.5379e-05
10 *996:B1 *992:A 1.73877e-05
11 *996:B1 *995:C1 6.72833e-06
12 *996:B1 *997:A2 7.65603e-05
13 *996:B1 *997:B1 0.000298384
14 *996:B1 *1139:CLK 0.0001945
15 *996:B1 *1170:RESET_B 0.000175721
16 *996:A1 *996:B1 4.82919e-05
17 *997:A1 *996:B1 0.000196073
*RES
1 *993:Y *158:4 1.6 
2 *158:4 *995:A1 3.79 
3 *158:4 *996:B1 13.355 
*END

*D_NET *159 0.000842795
*CONN
*I *995:C1 I *D sky130_fd_sc_hd__o211a_1
*I *994:Y O *D sky130_fd_sc_hd__inv_2
*CAP
1 *995:C1 0.000237769
2 *994:Y 0.000237769
3 *995:C1 *995:B1 8.74247e-05
4 *995:C1 *996:B2 3.73332e-05
5 *995:C1 *998:A0 8.64599e-05
6 *995:C1 *303:47 1.19928e-05
7 *995:A1 *995:C1 0.000111391
8 *996:B1 *995:C1 6.72833e-06
9 *997:A1 *995:C1 2.59285e-05
*RES
1 *994:Y *995:C1 12 
*END

*D_NET *160 0.00123748
*CONN
*I *997:B1 I *D sky130_fd_sc_hd__o221a_2
*I *995:X O *D sky130_fd_sc_hd__o211a_1
*CAP
1 *997:B1 0.000204978
2 *995:X 0.000204978
3 *997:B1 *997:B2 3.60125e-05
4 *997:B1 *162:6 0.000383066
5 *995:A1 *997:B1 8.46818e-05
6 *996:B1 *997:B1 0.000298384
7 *997:A1 *997:B1 2.0187e-05
8 *93:232 *997:B1 5.19006e-06
*RES
1 *995:X *997:B1 9.20375 
*END

*D_NET *161 0.000616817
*CONN
*I *997:B2 I *D sky130_fd_sc_hd__o221a_2
*I *996:X O *D sky130_fd_sc_hd__a22o_1
*CAP
1 *997:B2 0.000183037
2 *996:X 0.000183037
3 *997:B2 *997:A2 0.000132084
4 *997:B2 *1204:A 7.23602e-05
5 *997:B2 *253:40 0
6 *997:B1 *997:B2 3.60125e-05
7 *93:232 *997:B2 1.02869e-05
*RES
1 *996:X *997:B2 11.28 
*END

*D_NET *162 0.00508401
*CONN
*I *1000:S I *D sky130_fd_sc_hd__mux2_1
*I *1020:S I *D sky130_fd_sc_hd__mux2_1
*I *1024:S I *D sky130_fd_sc_hd__mux2_1
*I *1022:S I *D sky130_fd_sc_hd__mux2_1
*I *998:S I *D sky130_fd_sc_hd__mux2_1
*I *997:X O *D sky130_fd_sc_hd__o221a_2
*CAP
1 *1000:S 0
2 *1020:S 0.000188493
3 *1024:S 3.62592e-05
4 *1022:S 0.00014157
5 *998:S 8.78314e-05
6 *997:X 0.000425524
7 *162:27 0.000322525
8 *162:25 0.000466257
9 *162:23 0.000309221
10 *162:6 0.000689507
11 *998:S *995:B1 4.07329e-05
12 *998:S *998:A1 1.54665e-05
13 *1022:S *1200:A 0.000197243
14 *1022:S *303:30 6.41142e-05
15 *1024:S *1148:RESET_B 8.65905e-05
16 *162:6 *995:B1 4.12775e-05
17 *162:6 *996:B2 0.000111946
18 *162:6 *303:47 4.66108e-05
19 *162:23 *256:377 8.34144e-06
20 *162:23 *303:47 0.000156823
21 *162:25 *256:367 5.4256e-05
22 *162:25 *256:377 7.74144e-05
23 *162:25 *303:30 0.000126849
24 *162:27 *256:367 7.21296e-06
25 *162:27 *303:30 0.00014714
26 *995:A1 *162:6 1.5379e-05
27 *997:B1 *162:6 0.000383066
28 *1076:S *1020:S 8.49205e-05
29 *1076:S *162:27 0.00019375
30 *1088:A1 *1020:S 0.00046451
31 *126:69 *1022:S 8.87444e-05
32 *126:69 *162:27 4.43871e-06
*RES
1 *997:X *162:6 7.57 
2 *162:6 *998:S 3.22 
3 *162:6 *162:23 5.675 
4 *162:23 *162:25 3.93 
5 *162:25 *162:27 4.44 
6 *162:27 *1022:S 7.32 
7 *162:27 *1024:S 4.395 
8 *162:25 *1020:S 8.205 
9 *162:23 *1000:S 3.6 
*END

*D_NET *163 0.000700519
*CONN
*I *999:A I *D sky130_fd_sc_hd__clkbuf_1
*I *998:X O *D sky130_fd_sc_hd__mux2_1
*CAP
1 *999:A 0.000302327
2 *998:X 0.000302327
3 *1137:D *999:A 5.31158e-06
4 *30:47 *999:A 9.05535e-05
*RES
1 *998:X *999:A 11.1 
*END

*D_NET *164 0.000829249
*CONN
*I *1001:A I *D sky130_fd_sc_hd__clkbuf_1
*I *1000:X O *D sky130_fd_sc_hd__mux2_1
*CAP
1 *1001:A 0.000356652
2 *1000:X 0.000356652
3 *30:47 *1001:A 0.000115945
*RES
1 *1000:X *1001:A 11.79 
*END

*D_NET *165 0.000366839
*CONN
*I *1004:A I *D sky130_fd_sc_hd__clkbuf_1
*I *1003:X O *D sky130_fd_sc_hd__mux2_1
*CAP
1 *1004:A 0.000102264
2 *1003:X 0.000102264
3 *1004:A *1078:A1 0.000162311
*RES
1 *1003:X *1004:A 5.3 
*END

*D_NET *166 0.000999077
*CONN
*I *1006:A I *D sky130_fd_sc_hd__clkbuf_1
*I *1005:X O *D sky130_fd_sc_hd__mux2_1
*CAP
1 *1006:A 0.000328237
2 *1005:X 0.000328237
3 *1006:A *1003:A1 4.05102e-05
4 *1006:A *1080:A1 0.000196471
5 *1006:A *294:14 3.39432e-05
6 *1141:D *1006:A 7.1679e-05
*RES
1 *1005:X *1006:A 14.37 
*END

*D_NET *167 0.00133991
*CONN
*I *1008:A I *D sky130_fd_sc_hd__clkbuf_1
*I *1007:X O *D sky130_fd_sc_hd__mux2_1
*CAP
1 *1008:A 0.000168772
2 *1007:X 0.000168772
3 *1008:A *932:A1 0.000304194
4 *1008:A *1007:A1 2.49909e-05
5 *1008:A *355:17 8.53113e-06
6 *1008:A *355:19 0.000183307
7 *931:A1 *1008:A 0.000481345
*RES
1 *1007:X *1008:A 13.365 
*END

*D_NET *168 0.00159313
*CONN
*I *1014:A1 I *D sky130_fd_sc_hd__o221a_2
*I *1013:A1 I *D sky130_fd_sc_hd__a22o_1
*I *1009:Y O *D sky130_fd_sc_hd__inv_2
*CAP
1 *1014:A1 0.000251937
2 *1013:A1 8.17745e-05
3 *1009:Y 1.55113e-05
4 *168:6 0.000349223
5 *1013:A1 *1009:A 9.53428e-06
6 *1013:A1 *1013:B1 0.000168021
7 *1013:A1 *1013:B2 4.77719e-05
8 *1013:A1 *1014:B2 1.22608e-05
9 *1013:A1 *320:30 4.77757e-05
10 *1014:A1 *1012:C1 1.08758e-05
11 *1014:A1 *1014:A2 7.20938e-05
12 *1014:A1 *1017:A1 0.00011099
13 *1014:A1 *256:189 0
14 *168:6 *1009:A 2.69736e-05
15 *168:6 *1013:B1 8.52883e-05
16 *168:6 *320:30 3.6355e-05
17 *1031:C1 *1013:A1 8.6076e-05
18 *93:81 *1014:A1 0.000180662
*RES
1 *1009:Y *168:6 2.395 
2 *168:6 *1013:A1 4.15 
3 *168:6 *1014:A1 13.785 
*END

*D_NET *169 0.00185271
*CONN
*I *1012:A1 I *D sky130_fd_sc_hd__o211a_1
*I *1013:B1 I *D sky130_fd_sc_hd__a22o_1
*I *1010:Y O *D sky130_fd_sc_hd__inv_2
*CAP
1 *1012:A1 7.61347e-05
2 *1013:B1 0.000461649
3 *1010:Y 6.25076e-05
4 *169:8 0.000600291
5 *1012:A1 *1014:B1 0.000122337
6 *1013:B1 *1009:A 2.23006e-05
7 *1013:B1 *1014:B2 8.51862e-05
8 *1013:B1 *1065:A 1.37328e-05
9 *1013:B1 *256:254 7.36562e-05
10 *169:8 *256:254 6.11019e-05
11 *1013:A1 *1013:B1 0.000168021
12 *1031:C1 *1013:B1 0
13 *93:100 *1012:A1 2.05056e-05
14 *168:6 *1013:B1 8.52883e-05
*RES
1 *1010:Y *169:8 4.98 
2 *169:8 *1013:B1 11.145 
3 *169:8 *1012:A1 5.085 
*END

*D_NET *170 0.00061957
*CONN
*I *1012:C1 I *D sky130_fd_sc_hd__o211a_1
*I *1011:Y O *D sky130_fd_sc_hd__inv_2
*CAP
1 *1012:C1 0.000223199
2 *1011:Y 0.000223199
3 *1012:C1 *1014:B1 8.70856e-05
4 *1012:C1 *1017:A1 4.05358e-05
5 *1012:C1 *173:16 0
6 *1014:A1 *1012:C1 1.08758e-05
7 *93:81 *1012:C1 3.46748e-05
*RES
1 *1011:Y *1012:C1 10.965 
*END

*D_NET *171 0.000845814
*CONN
*I *1014:B1 I *D sky130_fd_sc_hd__o221a_2
*I *1012:X O *D sky130_fd_sc_hd__o211a_1
*CAP
1 *1014:B1 0.000132535
2 *1012:X 0.000132535
3 *1012:A1 *1014:B1 0.000122337
4 *1012:C1 *1014:B1 8.70856e-05
5 *93:81 *1014:B1 6.41797e-05
6 *93:100 *1014:B1 0.000307143
*RES
1 *1012:X *1014:B1 7.1525 
*END

*D_NET *172 0.00078678
*CONN
*I *1014:B2 I *D sky130_fd_sc_hd__o221a_2
*I *1013:X O *D sky130_fd_sc_hd__a22o_1
*CAP
1 *1014:B2 0.000214487
2 *1013:X 0.000214487
3 *1014:B2 *1014:A2 0.000113797
4 *1014:B2 *1017:A1 0.000110492
5 *1014:B2 *249:27 2.72392e-05
6 *1013:A1 *1014:B2 1.22608e-05
7 *1013:B1 *1014:B2 8.51862e-05
8 *1031:C1 *1014:B2 8.83102e-06
*RES
1 *1013:X *1014:B2 10.755 
*END

*D_NET *173 0.00480474
*CONN
*I *1041:S I *D sky130_fd_sc_hd__mux2_1
*I *1039:S I *D sky130_fd_sc_hd__mux2_1
*I *1037:S I *D sky130_fd_sc_hd__mux2_1
*I *1017:S I *D sky130_fd_sc_hd__mux2_1
*I *1015:S I *D sky130_fd_sc_hd__mux2_1
*I *1014:X O *D sky130_fd_sc_hd__o221a_2
*CAP
1 *1041:S 0.000502961
2 *1039:S 0
3 *1037:S 0.000129432
4 *1017:S 0
5 *1015:S 0
6 *1014:X 0.000244945
7 *173:38 0.000211057
8 *173:34 0.000921969
9 *173:23 0.000483136
10 *173:16 0.0003907
11 *1037:S *1197:A 4.90291e-05
12 *1041:S *1041:A1 1.92392e-05
13 *1041:S *1167:CLK 0.000303905
14 *1041:S *256:266 0.000277442
15 *1041:S *256:286 0.000179071
16 *173:16 *1011:A 0
17 *173:16 *1012:B1 8.51808e-05
18 *173:16 *1017:A1 0
19 *173:16 *1143:RESET_B 1.61461e-05
20 *173:16 *256:189 0.000143266
21 *173:23 *1015:A0 1.19928e-05
22 *173:23 *1018:A 0.000122699
23 *173:23 *1153:CLK 0.000172348
24 *173:34 *1153:CLK 7.27003e-05
25 *173:34 *1153:RESET_B 4.51129e-05
26 *173:34 *256:254 2.42236e-05
27 *173:34 *256:266 0.000155899
28 *173:38 *1022:A1 0.000160342
29 *173:38 *325:54 4.89395e-05
30 *1012:C1 *173:16 0
31 *93:81 *173:16 3.30017e-05
*RES
1 *1014:X *173:16 10.625 
2 *173:16 *1015:S 1.6 
3 *173:16 *173:23 3.21 
4 *173:23 *1017:S 1.6 
5 *173:23 *173:34 8.3 
6 *173:34 *173:38 3.83 
7 *173:38 *1037:S 8.285 
8 *173:38 *1039:S 1.6 
9 *173:34 *1041:S 12.885 
*END

*D_NET *174 0.000192836
*CONN
*I *1016:A I *D sky130_fd_sc_hd__clkbuf_1
*I *1015:X O *D sky130_fd_sc_hd__mux2_1
*CAP
1 *1016:A 6.98845e-05
2 *1015:X 6.98845e-05
3 *1016:A *1018:A 5.30673e-05
4 *1016:A *1153:CLK 0
*RES
1 *1015:X *1016:A 4.61 
*END

*D_NET *175 0.000913109
*CONN
*I *1018:A I *D sky130_fd_sc_hd__clkbuf_1
*I *1017:X O *D sky130_fd_sc_hd__mux2_1
*CAP
1 *1018:A 0.00035044
2 *1017:X 0.00035044
3 *1018:A *1015:A0 1.90762e-05
4 *1016:A *1018:A 5.30673e-05
5 *1143:D *1018:A 1.7386e-05
6 *173:23 *1018:A 0.000122699
*RES
1 *1017:X *1018:A 8.75 
*END

*D_NET *176 0.000565006
*CONN
*I *1021:A I *D sky130_fd_sc_hd__clkbuf_1
*I *1020:X O *D sky130_fd_sc_hd__mux2_1
*CAP
1 *1021:A 0.00014486
2 *1020:X 0.00014486
3 *1021:A *245:10 0.000139245
4 *1021:A *245:63 0
5 *1021:A *256:367 3.68682e-05
6 *1021:A *256:377 6.19643e-05
7 *1146:D *1021:A 3.72081e-05
*RES
1 *1020:X *1021:A 10.875 
*END

*D_NET *177 0.000858459
*CONN
*I *1023:A I *D sky130_fd_sc_hd__clkbuf_1
*I *1022:X O *D sky130_fd_sc_hd__mux2_1
*CAP
1 *1023:A 0.000394558
2 *1022:X 0.000394558
3 *1023:A *1025:A 6.93424e-05
*RES
1 *1022:X *1023:A 12.915 
*END

*D_NET *178 0.000881091
*CONN
*I *1025:A I *D sky130_fd_sc_hd__clkbuf_1
*I *1024:X O *D sky130_fd_sc_hd__mux2_1
*CAP
1 *1025:A 0.000336927
2 *1024:X 0.000336927
3 *1025:A *1024:A1 0.000137895
4 *1023:A *1025:A 6.93424e-05
*RES
1 *1024:X *1025:A 13.08 
*END

*D_NET *179 0.00124737
*CONN
*I *1030:A1 I *D sky130_fd_sc_hd__a22o_1
*I *1031:A1 I *D sky130_fd_sc_hd__o221a_2
*I *1026:Y O *D sky130_fd_sc_hd__inv_2
*CAP
1 *1030:A1 0.00026144
2 *1031:A1 4.0918e-05
3 *1026:Y 0.000138544
4 *179:6 0.000440902
5 *1030:A1 *1030:A2 0.00011741
6 *1030:A1 *1030:B1 3.26889e-05
7 *1030:A1 *1030:B2 1.61831e-05
8 *1030:A1 *184:8 2.49909e-05
9 *1031:A1 *1030:A2 8.65961e-05
10 *1031:A1 *1031:B2 2.16833e-05
11 *179:6 *1031:B1 1.12643e-05
12 *1031:C1 *1031:A1 4.00541e-06
13 *1031:C1 *179:6 5.07419e-05
*RES
1 *1026:Y *179:6 3.775 
2 *179:6 *1031:A1 3.1 
3 *179:6 *1030:A1 5.53 
*END

*D_NET *180 0.00148573
*CONN
*I *1030:B2 I *D sky130_fd_sc_hd__a22o_1
*I *1029:A2 I *D sky130_fd_sc_hd__o211a_1
*I *1027:Y O *D sky130_fd_sc_hd__inv_2
*CAP
1 *1030:B2 0.000167994
2 *1029:A2 0.000212959
3 *1027:Y 0
4 *180:4 0.000380952
5 *1029:A2 *1029:A1 5.58436e-05
6 *1029:A2 *1029:B1 0.000293093
7 *1029:A2 *252:23 4.39911e-06
8 *1030:B2 *1027:A 6.9117e-05
9 *1030:B2 *1030:A2 6.97461e-05
10 *1030:B2 *1030:B1 1.34594e-05
11 *1030:B2 *1158:CLK 3.00381e-05
12 *1030:B2 *184:20 0.000135702
13 *1030:A1 *1030:B2 1.61831e-05
14 *1149:D *1030:B2 3.62405e-05
*RES
1 *1027:Y *180:4 1.6 
2 *180:4 *1029:A2 4.99 
3 *180:4 *1030:B2 9.785 
*END

*D_NET *181 0.000828431
*CONN
*I *1029:C1 I *D sky130_fd_sc_hd__o211a_1
*I *1028:Y O *D sky130_fd_sc_hd__inv_2
*CAP
1 *1029:C1 0.000112038
2 *1028:Y 0.000112038
3 *1029:C1 *1027:A 4.82919e-05
4 *1029:C1 *1029:B1 0.000408139
5 *1029:C1 *1033:A 0.000124895
6 *1258:A *1029:C1 2.30292e-05
*RES
1 *1028:Y *1029:C1 7.115 
*END

*D_NET *182 0.000598944
*CONN
*I *1031:B1 I *D sky130_fd_sc_hd__o221a_2
*I *1029:X O *D sky130_fd_sc_hd__o211a_1
*CAP
1 *1031:B1 0.000143049
2 *1029:X 0.000143049
3 *1031:B1 *1029:A1 4.82919e-05
4 *1031:B1 *184:20 0
5 *1031:B1 *251:6 8.65905e-05
6 *1031:B1 *251:14 0.000101167
7 *1031:B1 *252:23 6.55328e-05
8 *179:6 *1031:B1 1.12643e-05
*RES
1 *1029:X *1031:B1 10.0837 
*END

*D_NET *183 0.000536623
*CONN
*I *1031:B2 I *D sky130_fd_sc_hd__o221a_2
*I *1030:X O *D sky130_fd_sc_hd__a22o_1
*CAP
1 *1031:B2 0.000110402
2 *1030:X 0.000110402
3 *1031:B2 *1030:A2 0.000196376
4 *1031:B2 *184:20 8.40269e-05
5 *1031:A1 *1031:B2 2.16833e-05
6 *1031:C1 *1031:B2 1.37328e-05
*RES
1 *1030:X *1031:B2 5.735 
*END

*D_NET *184 0.00396079
*CONN
*I *1052:S I *D sky130_fd_sc_hd__mux2_1
*I *1034:S I *D sky130_fd_sc_hd__mux2_1
*I *1032:S I *D sky130_fd_sc_hd__mux2_1
*I *1048:S I *D sky130_fd_sc_hd__mux2_1
*I *1050:S I *D sky130_fd_sc_hd__mux2_1
*I *1031:X O *D sky130_fd_sc_hd__o221a_2
*CAP
1 *1052:S 0.000160272
2 *1034:S 0.000100881
3 *1032:S 0
4 *1048:S 0
5 *1050:S 0.000159482
6 *1031:X 1.65033e-05
7 *184:65 0.000516262
8 *184:32 0.000527603
9 *184:20 0.000797512
10 *184:8 0.000701004
11 *1050:S *1050:A1 2.69153e-05
12 *1050:S *253:72 9.12494e-06
13 *184:8 *1030:A2 4.66108e-05
14 *184:20 *1027:A 7.06865e-05
15 *184:20 *1030:A2 7.67415e-06
16 *184:20 *1032:A0 4.92062e-05
17 *184:20 *1033:A 0.000163204
18 *184:20 *1158:CLK 0.00012454
19 *184:20 *252:23 1.94805e-05
20 *184:32 *1032:A0 3.09164e-05
21 *184:32 *1032:A1 9.50342e-06
22 *184:32 *1158:RESET_B 0
23 *184:32 *345:12 4.91778e-05
24 *184:65 *1027:A 0.000129508
25 *184:65 *1034:A1 0
26 *184:65 *251:14 0
27 *1030:A1 *184:8 2.49909e-05
28 *1030:B2 *184:20 0.000135702
29 *1031:B1 *184:20 0
30 *1031:B2 *184:20 8.40269e-05
*RES
1 *1031:X *184:8 4.05 
2 *184:8 *184:20 10.01 
3 *184:20 *184:32 9.475 
4 *184:32 *1050:S 8.15 
5 *184:32 *1048:S 1.6 
6 *184:20 *1032:S 1.6 
7 *184:8 *184:65 4.485 
8 *184:65 *1034:S 5.085 
9 *184:65 *1052:S 6 
*END

*D_NET *185 0.000929157
*CONN
*I *1033:A I *D sky130_fd_sc_hd__clkbuf_1
*I *1032:X O *D sky130_fd_sc_hd__mux2_1
*CAP
1 *1033:A 0.000245585
2 *1032:X 0.000245585
3 *1033:A *1032:A1 0
4 *1029:C1 *1033:A 0.000124895
5 *1149:D *1033:A 6.32915e-05
6 *1258:A *1033:A 8.65961e-05
7 *184:20 *1033:A 0.000163204
*RES
1 *1032:X *1033:A 11.46 
*END

*D_NET *186 0.000880058
*CONN
*I *1035:A I *D sky130_fd_sc_hd__clkbuf_1
*I *1034:X O *D sky130_fd_sc_hd__mux2_1
*CAP
1 *1035:A 0.000309131
2 *1034:X 0.000309131
3 *1035:A *1150:CLK 7.08493e-05
4 *1035:A *240:50 2.69217e-05
5 *1035:A *240:67 7.03276e-05
6 *1035:A *320:22 7.03276e-05
7 *1150:D *1035:A 2.33708e-05
*RES
1 *1034:X *1035:A 11.805 
*END

*D_NET *187 0.000158699
*CONN
*I *1038:A I *D sky130_fd_sc_hd__clkbuf_1
*I *1037:X O *D sky130_fd_sc_hd__mux2_1
*CAP
1 *1038:A 5.5459e-05
2 *1037:X 5.5459e-05
3 *1038:A *1197:A 4.77807e-05
*RES
1 *1037:X *1038:A 4.265 
*END

*D_NET *188 0.000819621
*CONN
*I *1040:A I *D sky130_fd_sc_hd__clkbuf_1
*I *1039:X O *D sky130_fd_sc_hd__mux2_1
*CAP
1 *1040:A 0.000249832
2 *1039:X 0.000249832
3 *1040:A *1015:A0 0.000122801
4 *1040:A *1022:A1 4.66108e-05
5 *1040:A *1235:A 0.000150545
*RES
1 *1039:X *1040:A 8.165 
*END

*D_NET *189 0.000350385
*CONN
*I *1042:A I *D sky130_fd_sc_hd__clkbuf_1
*I *1041:X O *D sky130_fd_sc_hd__mux2_1
*CAP
1 *1042:A 0.000175192
2 *1041:X 0.000175192
*RES
1 *1041:X *1042:A 5.645 
*END

*D_NET *190 0.000359234
*CONN
*I *1044:A I *D sky130_fd_sc_hd__clkbuf_1
*I *1043:X O *D sky130_fd_sc_hd__mux2_1
*CAP
1 *1044:A 9.27598e-05
2 *1043:X 9.27598e-05
3 *1044:A *253:72 0.000173714
*RES
1 *1043:X *1044:A 5.3 
*END

*D_NET *191 0.000799883
*CONN
*I *1046:A I *D sky130_fd_sc_hd__clkbuf_1
*I *1045:X O *D sky130_fd_sc_hd__mux2_1
*CAP
1 *1046:A 0.000192498
2 *1045:X 0.000192498
3 *1046:A *1045:A1 3.72081e-05
4 *1046:A *254:10 2.30292e-05
5 *1046:A *254:14 9.81975e-05
6 *973:B2 *1046:A 0.000184098
7 *1156:D *1046:A 7.23533e-05
*RES
1 *1045:X *1046:A 11.97 
*END

*D_NET *192 0.000711622
*CONN
*I *1049:A I *D sky130_fd_sc_hd__clkbuf_1
*I *1048:X O *D sky130_fd_sc_hd__mux2_1
*CAP
1 *1049:A 0.00025976
2 *1048:X 0.00025976
3 *1049:A *920:C 0
4 *1049:A *1229:A 0
5 *1049:A *250:14 7.35813e-05
6 *1049:A *345:12 0
7 *1158:D *1049:A 0.00011852
*RES
1 *1048:X *1049:A 12.015 
*END

*D_NET *193 0.00014009
*CONN
*I *1051:A I *D sky130_fd_sc_hd__clkbuf_1
*I *1050:X O *D sky130_fd_sc_hd__mux2_1
*CAP
1 *1051:A 7.00452e-05
2 *1050:X 7.00452e-05
*RES
1 *1050:X *1051:A 4.265 
*END

*D_NET *194 0.000969803
*CONN
*I *1053:A I *D sky130_fd_sc_hd__clkbuf_1
*I *1052:X O *D sky130_fd_sc_hd__mux2_1
*CAP
1 *1053:A 0.000232659
2 *1052:X 0.000232659
3 *1053:A *1019:B1 0.000158543
4 *1053:A *1246:A 0.000269323
5 *1053:A *326:36 3.5678e-06
6 *1053:A *326:53 7.30505e-05
*RES
1 *1052:X *1053:A 8.51 
*END

*D_NET *195 0.00115039
*CONN
*I *1055:A I *D sky130_fd_sc_hd__clkbuf_1
*I *1054:X O *D sky130_fd_sc_hd__mux2_1
*CAP
1 *1055:A 0.000199949
2 *1054:X 0.000199949
3 *1055:A *1003:A1 0.000243815
4 *1055:A *1005:A1 0.000457736
5 *1055:A *1056:A0 4.89395e-05
*RES
1 *1054:X *1055:A 13.11 
*END

*D_NET *196 0.000236857
*CONN
*I *1057:A I *D sky130_fd_sc_hd__clkbuf_1
*I *1056:X O *D sky130_fd_sc_hd__mux2_1
*CAP
1 *1057:A 6.04558e-05
2 *1056:X 6.04558e-05
3 *1057:A *243:92 0.000115945
*RES
1 *1056:X *1057:A 8.58 
*END

*D_NET *197 0.0012963
*CONN
*I *1059:A I *D sky130_fd_sc_hd__clkbuf_1
*I *1058:X O *D sky130_fd_sc_hd__mux2_1
*CAP
1 *1059:A 0.000498682
2 *1058:X 0.000498682
3 *1059:A *1163:RESET_B 0.000173743
4 *1059:A *1164:RESET_B 0.000116095
5 *1059:A *243:31 0
6 *980:A *1059:A 9.09788e-06
7 *1163:D *1059:A 0
*RES
1 *1058:X *1059:A 14.55 
*END

*D_NET *198 0.000491501
*CONN
*I *1061:A I *D sky130_fd_sc_hd__clkbuf_1
*I *1060:X O *D sky130_fd_sc_hd__mux2_1
*CAP
1 *1061:A 0.000187668
2 *1060:X 0.000187668
3 *1061:A *1060:A0 0
4 *1061:A *1164:RESET_B 0
5 *1061:A *239:59 0
6 *1061:A *243:31 0
7 *1061:A *367:23 0.000116165
*RES
1 *1060:X *1061:A 10.62 
*END

*D_NET *199 0.000139768
*CONN
*I *1063:A I *D sky130_fd_sc_hd__clkbuf_1
*I *1062:X O *D sky130_fd_sc_hd__mux2_1
*CAP
1 *1063:A 6.44458e-05
2 *1062:X 6.44458e-05
3 *126:22 *1063:A 1.08758e-05
*RES
1 *1062:X *1063:A 4.265 
*END

*D_NET *200 0.000518261
*CONN
*I *1065:A I *D sky130_fd_sc_hd__clkbuf_1
*I *1064:X O *D sky130_fd_sc_hd__mux2_1
*CAP
1 *1065:A 0.000214444
2 *1064:X 0.000214444
3 *1065:A *1064:A1 0
4 *1065:A *1166:CLK 4.00541e-06
5 *1013:B1 *1065:A 1.37328e-05
6 *1166:D *1065:A 7.16347e-05
*RES
1 *1064:X *1065:A 10.425 
*END

*D_NET *201 0.000383218
*CONN
*I *1067:A I *D sky130_fd_sc_hd__clkbuf_1
*I *1066:X O *D sky130_fd_sc_hd__mux2_1
*CAP
1 *1067:A 0.000153173
2 *1066:X 0.000153173
3 *1067:A *1020:A1 2.59285e-05
4 *1067:A *278:8 5.09431e-05
*RES
1 *1066:X *1067:A 10.08 
*END

*D_NET *202 0.000563589
*CONN
*I *1250:A I *D sky130_fd_sc_hd__dlygate4sd3_1
*I *1068:X O *D sky130_fd_sc_hd__mux2_1
*CAP
1 *1250:A 5.94606e-05
2 *1068:X 5.94606e-05
3 *1250:A *1068:A0 0.000170607
4 *1250:A *325:54 0.000274061
*RES
1 *1068:X *1250:A 6.08 
*END

*D_NET *203 0.000740064
*CONN
*I *1071:A I *D sky130_fd_sc_hd__clkbuf_1
*I *1070:X O *D sky130_fd_sc_hd__mux2_1
*CAP
1 *1071:A 0.000282002
2 *1070:X 0.000282002
3 *1071:A *1169:CLK 0
4 *1071:A *303:30 0.000123955
5 *1071:A *319:10 0
6 *1169:D *1071:A 5.21046e-05
*RES
1 *1070:X *1071:A 11.76 
*END

*D_NET *204 0.00081054
*CONN
*I *1073:A I *D sky130_fd_sc_hd__clkbuf_1
*I *1072:X O *D sky130_fd_sc_hd__mux2_1
*CAP
1 *1073:A 0.000299933
2 *1072:X 0.000299933
3 *1073:A *1139:CLK 2.07338e-05
4 *1073:A *245:63 0.000142163
5 *1170:D *1073:A 4.77769e-05
*RES
1 *1072:X *1073:A 11.805 
*END

*D_NET *205 0.00176686
*CONN
*I *1075:A I *D sky130_fd_sc_hd__clkbuf_1
*I *1074:X O *D sky130_fd_sc_hd__mux2_1
*CAP
1 *1075:A 0.000566127
2 *1074:X 0.000566127
3 *1075:A *937:B_N 8.53113e-06
4 *1075:A *1020:A1 0.000155903
5 *1075:A *1074:A0 0.000380062
6 *1075:A *1223:A 4.77807e-05
7 *950:A *1075:A 0
8 *1171:D *1075:A 4.23341e-05
9 *102:54 *1075:A 0
*RES
1 *1074:X *1075:A 17.505 
*END

*D_NET *206 0.000641643
*CONN
*I *1208:A I *D sky130_fd_sc_hd__dlygate4sd3_1
*I *1076:X O *D sky130_fd_sc_hd__mux2_1
*CAP
1 *1208:A 0.000196368
2 *1076:X 0.000196368
3 *1208:A *303:30 4.70343e-05
4 *1088:A1 *1208:A 0.000201872
*RES
1 *1076:X *1208:A 10.41 
*END

*D_NET *207 0.000245762
*CONN
*I *1079:A I *D sky130_fd_sc_hd__clkbuf_1
*I *1078:X O *D sky130_fd_sc_hd__mux2_1
*CAP
1 *1079:A 0.000122881
2 *1078:X 0.000122881
*RES
1 *1078:X *1079:A 5.06 
*END

*D_NET *208 0.000408675
*CONN
*I *1081:A I *D sky130_fd_sc_hd__clkbuf_1
*I *1080:X O *D sky130_fd_sc_hd__mux2_1
*CAP
1 *1081:A 0.000132115
2 *1080:X 0.000132115
3 *1081:A *1080:A1 5.80021e-05
4 *1081:A *1175:RESET_B 8.64421e-05
*RES
1 *1080:X *1081:A 9.375 
*END

*D_NET *209 0.00146943
*CONN
*I *1083:A I *D sky130_fd_sc_hd__clkbuf_1
*I *1082:X O *D sky130_fd_sc_hd__mux2_1
*CAP
1 *1083:A 0.000533932
2 *1082:X 0.000533932
3 *1083:A *1005:A1 6.2382e-05
4 *1083:A *1175:CLK 0.000119247
5 *1007:S *1083:A 5.20249e-05
6 *1175:D *1083:A 4.28282e-05
7 *126:202 *1083:A 3.33839e-05
8 *126:228 *1083:A 9.16956e-05
*RES
1 *1082:X *1083:A 15.345 
*END

*D_NET *210 0.000409078
*CONN
*I *1085:A I *D sky130_fd_sc_hd__clkbuf_1
*I *1084:X O *D sky130_fd_sc_hd__mux2_1
*CAP
1 *1085:A 0.00012232
2 *1084:X 0.00012232
3 *1085:A *1227:A 3.97493e-05
4 *1085:A *256:628 0
5 *1086:S *1085:A 7.39901e-05
6 *30:113 *1085:A 5.06989e-05
*RES
1 *1084:X *1085:A 9.63 
*END

*D_NET *211 0.000704151
*CONN
*I *1087:A I *D sky130_fd_sc_hd__clkbuf_1
*I *1086:X O *D sky130_fd_sc_hd__mux2_1
*CAP
1 *1087:A 0.000237922
2 *1086:X 0.000237922
3 *1087:A *989:A0 5.31772e-05
4 *1087:A *1177:CLK 4.82863e-05
5 *1087:A *1245:A 6.92618e-05
6 *1087:A *256:654 0
7 *1087:A *270:18 3.00381e-05
8 *99:22 *1087:A 2.75441e-05
*RES
1 *1086:X *1087:A 11.115 
*END

*D_NET *212 0.000316048
*CONN
*I *1089:A I *D sky130_fd_sc_hd__clkbuf_1
*I *1088:X O *D sky130_fd_sc_hd__mux2_1
*CAP
1 *1089:A 0.000113891
2 *1088:X 0.000113891
3 *1178:D *1089:A 8.8266e-05
*RES
1 *1088:X *1089:A 5.3 
*END

*D_NET *213 0.00331292
*CONN
*I *1091:A2 I *D sky130_fd_sc_hd__o21ai_1
*I *1119:A3 I *D sky130_fd_sc_hd__o31a_1
*I *1090:Y O *D sky130_fd_sc_hd__nand2_1
*CAP
1 *1091:A2 0.000407544
2 *1119:A3 5.39326e-05
3 *1090:Y 0.000449923
4 *213:20 0.0009114
5 *1091:A2 *239:55 0.000150453
6 *1119:A3 *1119:B1 8.57024e-05
7 *1119:A3 *239:55 5.16418e-05
8 *213:20 *961:A2 8.40213e-05
9 *213:20 *1202:A 0
10 *952:B *213:20 7.67415e-06
11 *952:D *213:20 5.28983e-05
12 *958:A_N *1091:A2 0
13 *958:C *213:20 7.47215e-05
14 *967:B1 *1091:A2 0
15 *967:C1 *1091:A2 0.000201934
16 *1094:B1 *1119:A3 0.000122325
17 *1094:B1 *213:20 0.000199833
18 *1195:A *213:20 0
19 *105:10 *213:20 8.63479e-05
20 *115:22 *1091:A2 0.000136685
21 *116:10 *1091:A2 0
22 *116:18 *1119:A3 2.30292e-05
23 *120:22 *213:20 1.6461e-05
24 *120:33 *213:20 0.00011355
25 *125:10 *213:20 8.53113e-06
26 *127:28 *1091:A2 6.70964e-05
27 *129:18 *1091:A2 7.21296e-06
28 *137:42 *1091:A2 0
*RES
1 *1090:Y *213:20 14.65 
2 *213:20 *1119:A3 5.355 
3 *213:20 *1091:A2 12.63 
*END

*D_NET *214 0.00299035
*CONN
*I *1092:A1 I *D sky130_fd_sc_hd__mux2_1
*I *1091:Y O *D sky130_fd_sc_hd__o21ai_1
*CAP
1 *1092:A1 0.000789924
2 *1091:Y 0.000789924
3 *1092:A1 *1104:B 3.11107e-05
4 *1092:A1 *239:18 1.10951e-05
5 *1092:A1 *361:8 7.64385e-05
6 *1092:A1 *361:12 0.000107902
7 *933:A *1092:A1 0.000366021
8 *938:C1 *1092:A1 7.03276e-05
9 *1106:B *1092:A1 0.000139245
10 *1188:D *1092:A1 5.39718e-05
11 *93:232 *1092:A1 5.00391e-05
12 *98:18 *1092:A1 6.98633e-05
13 *98:30 *1092:A1 5.87002e-05
14 *127:16 *1092:A1 2.62303e-05
15 *127:20 *1092:A1 0.000206907
16 *127:22 *1092:A1 5.98004e-06
17 *127:28 *1092:A1 4.06643e-05
18 *135:6 *1092:A1 8.92729e-05
19 *135:21 *1092:A1 6.72833e-06
*RES
1 *1091:Y *1092:A1 25.875 
*END

*D_NET *215 0.000423687
*CONN
*I *1093:A I *D sky130_fd_sc_hd__clkbuf_1
*I *1092:X O *D sky130_fd_sc_hd__mux2_1
*CAP
1 *1093:A 0.000154941
2 *1092:X 0.000154941
3 *1093:A *1180:CLK 2.59285e-05
4 *1180:D *1093:A 3.89366e-05
5 *93:232 *1093:A 4.89395e-05
*RES
1 *1092:X *1093:A 10.17 
*END

*D_NET *216 0.00174907
*CONN
*I *1095:A1 I *D sky130_fd_sc_hd__mux2_1
*I *1094:Y O *D sky130_fd_sc_hd__a21oi_1
*CAP
1 *1095:A1 0.00042571
2 *1094:Y 0.00042571
3 *1095:A1 *961:A2 9.55262e-06
4 *1095:A1 *1095:A0 2.86975e-05
5 *1095:A1 *1096:A 0.000534447
6 *1095:A1 *266:16 0.000194291
7 *1094:B1 *1095:A1 1.14192e-05
8 *124:63 *1095:A1 0.000119247
*RES
1 *1094:Y *1095:A1 12.635 
*END

*D_NET *217 0.00152949
*CONN
*I *1096:A I *D sky130_fd_sc_hd__clkbuf_1
*I *1095:X O *D sky130_fd_sc_hd__mux2_1
*CAP
1 *1096:A 0.000479896
2 *1095:X 0.000479896
3 *1096:A *1181:CLK 8.33066e-06
4 *1096:A *1181:RESET_B 2.69153e-05
5 *1095:A1 *1096:A 0.000534447
*RES
1 *1095:X *1096:A 14.22 
*END

*D_NET *218 0.000219431
*CONN
*I *1098:A I *D sky130_fd_sc_hd__clkbuf_1
*I *1097:X O *D sky130_fd_sc_hd__mux2_1
*CAP
1 *1098:A 0.000109716
2 *1097:X 0.000109716
*RES
1 *1097:X *1098:A 4.955 
*END

*D_NET *219 0.00624388
*CONN
*I *1101:A2 I *D sky130_fd_sc_hd__o21ai_1
*I *1110:C I *D sky130_fd_sc_hd__or4_1
*I *1107:C1 I *D sky130_fd_sc_hd__a211o_1
*I *1104:B I *D sky130_fd_sc_hd__nor2_1
*I *1109:A2 I *D sky130_fd_sc_hd__o31ai_1
*I *1100:C I *D sky130_fd_sc_hd__or3_1
*I *1099:Y O *D sky130_fd_sc_hd__nand2_2
*CAP
1 *1101:A2 0
2 *1110:C 1.96902e-05
3 *1107:C1 1.71694e-05
4 *1104:B 0.000109628
5 *1109:A2 9.06871e-06
6 *1100:C 4.97623e-05
7 *1099:Y 0.000581226
8 *219:77 0.000155674
9 *219:60 0.000303244
10 *219:45 0.000305106
11 *219:28 0.000429452
12 *219:22 0.00073968
13 *1100:C *1188:CLK 4.80285e-05
14 *1104:B *1108:A2 0.000158556
15 *1104:B *1108:B1 6.91623e-05
16 *1107:C1 *1107:A1 3.5678e-06
17 *1110:C *1110:D 2.88357e-05
18 *219:22 *936:B_N 7.11608e-05
19 *219:22 *1113:B 5.75046e-05
20 *219:22 *1186:CLK 9.73562e-05
21 *219:22 *1187:CLK 2.3228e-05
22 *219:45 *1106:A 0
23 *219:45 *224:10 0.000114492
24 *219:60 *224:10 8.53113e-06
25 *219:60 *224:25 0.000126184
26 *219:77 *1108:B1 6.72833e-06
27 *219:77 *1110:D 3.54359e-05
28 *219:77 *224:25 4.41506e-05
29 *968:B1 *219:22 0.000136804
30 *1092:A1 *1104:B 3.11107e-05
31 *1100:A *219:28 1.07797e-05
32 *1100:A *219:45 1.26626e-05
33 *1101:B1 *219:22 3.00355e-05
34 *1101:B1 *219:28 7.14699e-05
35 *1102:A *1100:C 4.66108e-05
36 *1104:A *1104:B 0.000269343
37 *1104:A *219:45 5.53249e-06
38 *1104:A *219:60 6.67054e-05
39 *1107:B1 *219:77 4.77807e-05
40 *1110:A *1110:C 7.50406e-05
41 *1110:A *219:77 4.77807e-05
42 *1110:B *219:77 3.83194e-05
43 *1113:A *219:28 0.000185398
44 *1122:A2 *219:22 3.7712e-05
45 *30:22 *219:22 0.000128589
46 *98:10 *219:28 1.08758e-05
47 *99:134 *219:45 0
48 *126:265 *1109:A2 1.59999e-05
49 *127:20 *1104:B 5.0096e-05
50 *127:20 *219:45 0
51 *127:61 *1100:C 4.66108e-05
52 *130:18 *219:22 8.65905e-05
53 *139:10 *219:22 0.000137124
54 *139:23 *219:22 0.000561429
55 *139:23 *219:28 7.47215e-05
56 *139:36 *219:28 0.000127373
57 *139:36 *219:45 9.61414e-05
58 *139:47 *219:45 0.000153492
59 *139:55 *1109:A2 2.91343e-05
*RES
1 *1099:Y *219:22 18.71 
2 *219:22 *219:28 5.195 
3 *219:28 *1100:C 4.755 
4 *219:28 *219:45 4.995 
5 *219:45 *1109:A2 3.8775 
6 *219:45 *219:60 3.995 
7 *219:60 *1104:B 9.425 
8 *219:60 *219:77 2.535 
9 *219:77 *1107:C1 1.96 
10 *219:77 *1110:C 2.395 
11 *219:22 *1101:A2 1.6 
*END

*D_NET *220 0.000243433
*CONN
*I *1102:B I *D sky130_fd_sc_hd__and3_1
*I *1100:X O *D sky130_fd_sc_hd__or3_1
*CAP
1 *1102:B 8.49259e-05
2 *1100:X 8.49259e-05
3 *1102:B *1188:CLK 7.35813e-05
*RES
1 *1100:X *1102:B 4.34 
*END

*D_NET *221 0.000242663
*CONN
*I *1102:C I *D sky130_fd_sc_hd__and3_1
*I *1101:Y O *D sky130_fd_sc_hd__o21ai_1
*CAP
1 *1102:C 9.14053e-05
2 *1101:Y 9.14053e-05
3 *1102:C *1188:CLK 2.11992e-05
4 *1102:C *355:84 3.86529e-05
*RES
1 *1101:Y *1102:C 8.58 
*END

*D_NET *222 0.000395594
*CONN
*I *1103:A I *D sky130_fd_sc_hd__clkbuf_1
*I *1102:X O *D sky130_fd_sc_hd__and3_1
*CAP
1 *1103:A 0.000148429
2 *1102:X 0.000148429
3 *1103:A *1188:CLK 3.00381e-05
4 *1103:A *247:12 3.00381e-05
5 *1103:A *355:84 0
6 *1183:D *1103:A 3.86607e-05
*RES
1 *1102:X *1103:A 9.63 
*END

*D_NET *223 0.000413155
*CONN
*I *1108:A2 I *D sky130_fd_sc_hd__o211a_1
*I *1104:Y O *D sky130_fd_sc_hd__nor2_1
*CAP
1 *1108:A2 7.4227e-05
2 *1104:Y 7.4227e-05
3 *1108:A2 *1108:B1 3.79624e-05
4 *1104:A *1108:A2 2.21074e-05
5 *1104:B *1108:A2 0.000158556
6 *127:16 *1108:A2 4.6075e-05
*RES
1 *1104:Y *1108:A2 5.39 
*END

*D_NET *224 0.00175073
*CONN
*I *1110:D I *D sky130_fd_sc_hd__or4_1
*I *1107:A1 I *D sky130_fd_sc_hd__a211o_1
*I *1109:A3 I *D sky130_fd_sc_hd__o31ai_1
*I *1105:Y O *D sky130_fd_sc_hd__nand2_1
*CAP
1 *1110:D 7.96032e-05
2 *1107:A1 1.05906e-05
3 *1109:A3 0
4 *1105:Y 0.000176086
5 *224:25 0.000246461
6 *224:10 0.000332353
7 *224:25 *1107:A2 0.000134756
8 *224:25 *1108:B1 3.12916e-05
9 *1107:B1 *1110:D 4.77807e-05
10 *1107:C1 *1107:A1 3.5678e-06
11 *1110:C *1110:D 2.88357e-05
12 *102:30 *224:10 0.000197264
13 *139:47 *224:10 7.23602e-05
14 *139:79 *224:10 2.42236e-05
15 *139:79 *224:25 3.67658e-05
16 *219:45 *224:10 0.000114492
17 *219:60 *224:10 8.53113e-06
18 *219:60 *224:25 0.000126184
19 *219:77 *1110:D 3.54359e-05
20 *219:77 *224:25 4.41506e-05
*RES
1 *1105:Y *224:10 6.81 
2 *224:10 *1109:A3 3.6 
3 *224:10 *224:25 5.555 
4 *224:25 *1107:A1 1.96 
5 *224:25 *1110:D 3.085 
*END

*D_NET *225 0.00125417
*CONN
*I *1107:A2 I *D sky130_fd_sc_hd__a211o_1
*I *1106:X O *D sky130_fd_sc_hd__or2_1
*CAP
1 *1107:A2 0.000309388
2 *1106:X 0.000309388
3 *1107:B1 *1107:A2 5.011e-05
4 *126:265 *1107:A2 0.0003802
5 *139:79 *1107:A2 7.03276e-05
6 *224:25 *1107:A2 0.000134756
*RES
1 *1106:X *1107:A2 12.39 
*END

*D_NET *226 0.000460944
*CONN
*I *1108:B1 I *D sky130_fd_sc_hd__o211a_1
*I *1107:X O *D sky130_fd_sc_hd__a211o_1
*CAP
1 *1108:B1 0.000124533
2 *1107:X 0.000124533
3 *1104:B *1108:B1 6.91623e-05
4 *1108:A2 *1108:B1 3.79624e-05
5 *1184:D *1108:B1 4.89395e-05
6 *127:16 *1108:B1 1.77945e-05
7 *219:77 *1108:B1 6.72833e-06
8 *224:25 *1108:B1 3.12916e-05
*RES
1 *1107:X *1108:B1 6.095 
*END

*D_NET *227 0.0010533
*CONN
*I *1111:A1 I *D sky130_fd_sc_hd__a21oi_1
*I *1109:Y O *D sky130_fd_sc_hd__o31ai_1
*CAP
1 *1111:A1 0.00029327
2 *1109:Y 0.00029327
3 *1109:B1 *1111:A1 4.66108e-05
4 *1185:D *1111:A1 1.64067e-05
5 *102:16 *1111:A1 0.000160383
6 *126:265 *1111:A1 0.00023635
7 *139:55 *1111:A1 7.00889e-06
*RES
1 *1109:Y *1111:A1 13.695 
*END

*D_NET *228 0.00014264
*CONN
*I *1111:A2 I *D sky130_fd_sc_hd__a21oi_1
*I *1110:X O *D sky130_fd_sc_hd__or4_1
*CAP
1 *1111:A2 5.4307e-05
2 *1110:X 5.4307e-05
3 *1110:A *1111:A2 5.19006e-06
4 *1185:D *1111:A2 2.88357e-05
*RES
1 *1110:X *1111:A2 4.265 
*END

*D_NET *229 0.000414038
*CONN
*I *1113:B I *D sky130_fd_sc_hd__nand2_1
*I *1112:Y O *D sky130_fd_sc_hd__o21ai_1
*CAP
1 *1113:B 0.000149601
2 *1112:Y 0.000149601
3 *1113:B *1203:A 7.18107e-06
4 *964:A2 *1113:B 5.31158e-06
5 *1112:A1 *1113:B 2.69217e-05
6 *134:12 *1113:B 1.79174e-05
7 *219:22 *1113:B 5.75046e-05
*RES
1 *1112:Y *1113:B 9.57 
*END

*D_NET *230 0.000316228
*CONN
*I *1115:B I *D sky130_fd_sc_hd__nand2_1
*I *1114:Y O *D sky130_fd_sc_hd__o21ai_1
*CAP
1 *1115:B 0.000118755
2 *1114:Y 0.000118755
3 *1115:B *936:B_N 2.21785e-05
4 *1115:B *1114:B1 3.40971e-05
5 *1100:A *1115:B 2.24423e-05
6 *1113:A *1115:B 0
7 *127:28 *1115:B 0
*RES
1 *1114:Y *1115:B 9.285 
*END

*D_NET *231 0.000223678
*CONN
*I *1117:B I *D sky130_fd_sc_hd__or2_1
*I *1116:X O *D sky130_fd_sc_hd__o31a_1
*CAP
1 *1117:B 9.66548e-05
2 *1116:X 9.66548e-05
3 *951:D1 *1117:B 3.03684e-05
*RES
1 *1116:X *1117:B 4.685 
*END

*D_NET *232 0.000666352
*CONN
*I *1118:A I *D sky130_fd_sc_hd__clkbuf_1
*I *1117:X O *D sky130_fd_sc_hd__or2_1
*CAP
1 *1118:A 0.000231069
2 *1117:X 0.000231069
3 *950:A *1118:A 0.000101381
4 *1117:A *1118:A 3.72916e-05
5 *1189:D *1118:A 6.55406e-05
6 *93:219 *1118:A 0
*RES
1 *1117:X *1118:A 11.67 
*END

*D_NET *233 0.000195775
*CONN
*I *1120:B I *D sky130_fd_sc_hd__or2_1
*I *1119:X O *D sky130_fd_sc_hd__o31a_1
*CAP
1 *1120:B 4.77484e-05
2 *1119:X 4.77484e-05
3 *1120:B *239:55 0
4 *98:38 *1120:B 9.47454e-05
5 *116:18 *1120:B 5.53249e-06
*RES
1 *1119:X *1120:B 8.325 
*END

*D_NET *234 0.000405038
*CONN
*I *1121:A I *D sky130_fd_sc_hd__clkbuf_1
*I *1120:X O *D sky130_fd_sc_hd__or2_1
*CAP
1 *1121:A 7.28025e-05
2 *1120:X 7.28025e-05
3 *1121:A *1181:RESET_B 4.90227e-05
4 *1121:A *239:55 7.32671e-05
5 *1120:A *1121:A 5.06832e-05
6 *98:53 *1121:A 8.64599e-05
*RES
1 *1120:X *1121:A 9.63 
*END

*D_NET *235 0.000659556
*CONN
*I *1123:B I *D sky130_fd_sc_hd__or2_1
*I *1122:Y O *D sky130_fd_sc_hd__a21oi_1
*CAP
1 *1123:B 0.000235898
2 *1122:Y 0.000235898
3 *1123:B *957:A 1.37328e-05
4 *1123:B *1124:A 3.54652e-06
5 *1123:B *373:12 0
6 *1095:S *1123:B 8.40388e-05
7 *1123:A *1123:B 8.64421e-05
*RES
1 *1122:Y *1123:B 10.935 
*END

*D_NET *236 0.00197453
*CONN
*I *1124:A I *D sky130_fd_sc_hd__clkbuf_1
*I *1123:X O *D sky130_fd_sc_hd__or2_1
*CAP
1 *1124:A 0.000528096
2 *1123:X 0.000528096
3 *1124:A *246:10 9.47017e-05
4 *932:A2 *1124:A 0.000121368
5 *932:B1 *1124:A 4.66108e-05
6 *1123:A *1124:A 2.47221e-05
7 *1123:B *1124:A 3.54652e-06
8 *1191:D *1124:A 0.000131069
9 *1195:A *1124:A 0
10 *105:10 *1124:A 0.000496324
*RES
1 *1123:X *1124:A 17.88 
*END

*D_NET *237 0.00137778
*CONN
*I *1127:B I *D sky130_fd_sc_hd__nor2_1
*I *1126:Y O *D sky130_fd_sc_hd__a21oi_1
*CAP
1 *1127:B 0.000179996
2 *1126:Y 0.000179996
3 *1127:B *1048:A0 6.54361e-06
4 *1127:B *1060:A1 0.00019545
5 *1127:B *1194:CLK 1.28996e-05
6 *1127:B *1229:A 0.000151254
7 *1127:B *326:36 0.00038728
8 *1127:A *1127:B 8.46818e-05
9 *1193:D *1127:B 0.000159722
10 *93:133 *1127:B 4.58262e-06
11 *94:17 *1127:B 1.5379e-05
*RES
1 *1126:Y *1127:B 13.38 
*END

*D_NET *238 0.00051262
*CONN
*I *1129:B I *D sky130_fd_sc_hd__nor2_1
*I *1128:Y O *D sky130_fd_sc_hd__nor2_1
*CAP
1 *1129:B 0.000156181
2 *1128:Y 0.000156181
3 *1129:B *1194:RESET_B 0
4 *1129:B *326:18 0
5 *922:A *1129:B 0.000133589
6 *1128:B *1129:B 3.78324e-05
7 *28:6 *1129:B 2.88357e-05
*RES
1 *1128:Y *1129:B 9.75 
*END

*D_NET *239 0.0166124
*CONN
*I *1202:A I *D sky130_fd_sc_hd__clkbuf_16
*I *1197:A I *D sky130_fd_sc_hd__clkbuf_16
*I *1198:A I *D sky130_fd_sc_hd__clkbuf_16
*I *1199:A I *D sky130_fd_sc_hd__clkbuf_16
*I *1196:A I *D sky130_fd_sc_hd__clkbuf_16
*I *1203:A I *D sky130_fd_sc_hd__clkbuf_16
*I *1201:A I *D sky130_fd_sc_hd__clkbuf_16
*I *1200:A I *D sky130_fd_sc_hd__clkbuf_16
*I *1195:X O *D sky130_fd_sc_hd__clkbuf_16
*CAP
1 *1202:A 0.000335507
2 *1197:A 0.00159236
3 *1198:A 0.000211545
4 *1199:A 0.000107675
5 *1196:A 0
6 *1203:A 0.000437007
7 *1201:A 0
8 *1200:A 0.000659379
9 *1195:X 0
10 *239:66 0.000549436
11 *239:59 0.000622407
12 *239:55 0.00233777
13 *239:51 0.000697775
14 *239:22 0.000908982
15 *239:18 0.00115844
16 *239:4 0.000480884
17 *1197:A *1037:A1 0.000122817
18 *1197:A *256:461 0
19 *1199:A *1060:A0 1.22676e-05
20 *1199:A *1060:A1 0
21 *1200:A *1022:A0 0.000215135
22 *1200:A *1022:A1 0.000114016
23 *1200:A *303:30 4.16007e-05
24 *1202:A *373:24 8.65905e-05
25 *1203:A *936:B_N 0.000183046
26 *239:18 *253:40 0
27 *239:22 *935:A2 2.20014e-05
28 *239:22 *935:B1 0.000121036
29 *239:22 *375:20 1.19928e-05
30 *239:55 *324:70 8.65529e-06
31 *239:55 *377:27 0.000221573
32 *239:59 *944:B1 0.000119498
33 *239:59 *1060:A0 0
34 *239:59 *1164:RESET_B 5.33787e-05
35 *239:59 *324:70 0.000827788
36 *239:59 *377:27 2.63329e-05
37 *935:A1 *1203:A 0.000157401
38 *935:A1 *239:22 8.52845e-05
39 *935:C1 *1200:A 1.14169e-05
40 *935:C1 *239:22 2.20014e-05
41 *938:C1 *239:18 7.03276e-05
42 *947:C1 *239:59 0
43 *958:B *239:18 4.82863e-05
44 *958:C *1202:A 0.00037277
45 *958:C *239:18 9.73554e-05
46 *958:C *239:51 3.66286e-05
47 *963:B *239:18 7.11275e-05
48 *1022:S *1200:A 0.000197243
49 *1037:S *1197:A 4.90291e-05
50 *1038:A *1197:A 4.77807e-05
51 *1060:S *1199:A 0
52 *1060:S *239:59 0
53 *1061:A *239:59 0
54 *1091:A2 *239:55 0.000150453
55 *1092:A1 *239:18 1.10951e-05
56 *1112:A1 *1203:A 8.54987e-05
57 *1113:A *1203:A 0.000121032
58 *1113:B *1203:A 7.18107e-06
59 *1119:A1 *239:55 3.67779e-05
60 *1119:A3 *239:55 5.16418e-05
61 *1120:A *239:55 0
62 *1120:B *239:55 0
63 *1121:A *239:55 7.32671e-05
64 *1152:D *1197:A 4.77769e-05
65 *1187:D *1203:A 0.00019608
66 *1195:A *1202:A 0.00020613
67 *98:30 *239:18 0.000510855
68 *98:38 *239:55 0
69 *105:10 *1202:A 4.66108e-05
70 *108:12 *239:22 0.000155601
71 *116:10 *239:18 0.000501689
72 *116:18 *239:55 0
73 *125:10 *1202:A 0
74 *127:28 *239:18 3.84918e-06
75 *129:10 *1202:A 0.000153482
76 *129:18 *1202:A 0.000347911
77 *129:18 *239:18 4.82919e-05
78 *129:18 *239:51 4.82863e-05
79 *129:18 *239:55 5.02217e-05
80 *134:12 *1203:A 0.000197862
81 *137:42 *239:55 7.21296e-06
82 *213:20 *1202:A 0
*RES
1 *1195:X *239:4 1.6 
2 *239:4 *239:18 16.03 
3 *239:18 *239:22 4.605 
4 *239:22 *1200:A 17.45 
5 *239:22 *1201:A 1.6 
6 *239:18 *1203:A 10.33 
7 *239:4 *239:51 0.45 
8 *239:51 *239:55 10.3925 
9 *239:55 *239:59 12.6875 
10 *239:59 *1196:A 1.6 
11 *239:59 *239:66 3.21 
12 *239:66 *1199:A 7.235 
13 *239:66 *1198:A 4.81 
14 *239:55 *1197:A 11.5731 
15 *239:51 *1202:A 14.675 
*END

*D_NET *240 0.0122577
*CONN
*I *1168:CLK I *D sky130_fd_sc_hd__dfrtp_1
*I *1165:CLK I *D sky130_fd_sc_hd__dfrtp_1
*I *1159:CLK I *D sky130_fd_sc_hd__dfrtp_1
*I *1149:CLK I *D sky130_fd_sc_hd__dfrtp_1
*I *1160:CLK I *D sky130_fd_sc_hd__dfrtp_1
*I *1145:CLK I *D sky130_fd_sc_hd__dfrtp_1
*I *1144:CLK I *D sky130_fd_sc_hd__dfrtp_1
*I *1151:CLK I *D sky130_fd_sc_hd__dfrtp_1
*I *1150:CLK I *D sky130_fd_sc_hd__dfrtp_1
*I *1158:CLK I *D sky130_fd_sc_hd__dfrtp_1
*I *1166:CLK I *D sky130_fd_sc_hd__dfrtp_1
*I *1196:X O *D sky130_fd_sc_hd__clkbuf_16
*CAP
1 *1168:CLK 0.000459566
2 *1165:CLK 3.1097e-05
3 *1159:CLK 8.25995e-06
4 *1149:CLK 0
5 *1160:CLK 1.79211e-05
6 *1145:CLK 0
7 *1144:CLK 0.000459152
8 *1151:CLK 0.000458911
9 *1150:CLK 2.66551e-05
10 *1158:CLK 0.000305847
11 *1166:CLK 0.000472909
12 *1196:X 0.000172787
13 *240:125 0.000642475
14 *240:86 0.000507804
15 *240:73 0.0011561
16 *240:67 0.00102853
17 *240:50 0.000609062
18 *240:48 0.00027919
19 *240:31 0.000714404
20 *240:25 0.000532418
21 *240:21 0.00032627
22 *240:10 0.000645696
23 *1158:CLK *1030:B1 0.000118978
24 *1158:CLK *1032:A0 0.000122325
25 *1158:CLK *1158:RESET_B 0.000473409
26 *1159:CLK *1159:RESET_B 2.21074e-05
27 *1159:CLK *326:36 4.77807e-05
28 *1165:CLK *256:169 2.16917e-05
29 *1168:CLK *1168:RESET_B 0
30 *240:25 *256:175 0
31 *240:25 *256:510 0.000244132
32 *240:31 *1159:RESET_B 2.69217e-05
33 *240:31 *326:36 0.000232434
34 *240:48 *1030:B1 2.59835e-05
35 *240:50 *1030:B1 0.000155671
36 *240:50 *1034:A0 0.0001979
37 *240:50 *1150:RESET_B 8.6932e-05
38 *240:50 *346:6 4.31979e-05
39 *240:67 *320:22 0.000212664
40 *240:73 *1145:RESET_B 4.58556e-05
41 *240:73 *1246:A 8.23457e-05
42 *240:73 *256:179 2.35435e-05
43 *240:73 *256:189 8.71695e-06
44 *240:73 *341:6 4.66108e-05
45 *240:125 *256:171 0
46 *240:125 *256:175 0
47 *1030:B2 *1158:CLK 3.00381e-05
48 *1035:A *1150:CLK 7.08493e-05
49 *1035:A *240:50 2.69217e-05
50 *1035:A *240:67 7.03276e-05
51 *1065:A *1166:CLK 4.00541e-06
52 *1145:D *240:73 9.32375e-05
53 *1149:D *1158:CLK 0.000113453
54 *1149:D *240:48 2.49909e-05
55 *1150:D *1150:CLK 7.27717e-05
56 *1160:D *240:67 3.31348e-05
57 *1160:D *240:73 3.30017e-05
58 *1165:D *240:25 0
59 *1165:D *240:125 0
60 *1166:D *1166:CLK 5.34747e-05
61 *1168:D *1168:CLK 3.32922e-05
62 *1251:A *1144:CLK 0
63 *93:12 *1144:CLK 0
64 *93:100 *1165:CLK 8.49205e-05
65 *93:122 *1168:CLK 1.52184e-05
66 *93:122 *240:10 6.40712e-05
67 *93:122 *240:125 6.28765e-05
68 *93:219 *1168:CLK 8.26536e-05
69 *126:26 *1165:CLK 6.97202e-05
70 *126:32 *1168:CLK 0
71 *184:20 *1158:CLK 0.00012454
*RES
1 *1196:X *240:10 4.24 
2 *240:10 *1166:CLK 7.15 
3 *240:10 *240:21 2 
4 *240:21 *240:25 5.675 
5 *240:25 *240:31 8.105 
6 *240:31 *1158:CLK 11.82 
7 *240:31 *240:48 3.14 
8 *240:48 *240:50 5.97 
9 *240:50 *1150:CLK 2.74 
10 *240:50 *240:67 10.96 
11 *240:67 *240:73 8.505 
12 *240:73 *1151:CLK 13.1 
13 *240:73 *240:86 0.87 
14 *240:86 *1144:CLK 12.71 
15 *240:86 *1145:CLK 1.6 
16 *240:67 *1160:CLK 1.96 
17 *240:48 *1149:CLK 1.6 
18 *240:25 *1159:CLK 2.05 
19 *240:21 *240:125 2.655 
20 *240:125 *1165:CLK 4.74 
21 *240:125 *1168:CLK 11.04 
*END

*D_NET *241 0.00673605
*CONN
*I *1152:CLK I *D sky130_fd_sc_hd__dfrtp_1
*I *1167:CLK I *D sky130_fd_sc_hd__dfrtp_1
*I *1169:CLK I *D sky130_fd_sc_hd__dfrtp_1
*I *1154:CLK I *D sky130_fd_sc_hd__dfrtp_1
*I *1143:CLK I *D sky130_fd_sc_hd__dfrtp_1
*I *1153:CLK I *D sky130_fd_sc_hd__dfrtp_1
*I *1197:X O *D sky130_fd_sc_hd__clkbuf_16
*CAP
1 *1152:CLK 0
2 *1167:CLK 0.000589814
3 *1169:CLK 0.000123704
4 *1154:CLK 0.000174926
5 *1143:CLK 0.000370698
6 *1153:CLK 0.000302994
7 *1197:X 5.40066e-05
8 *241:62 0.000819343
9 *241:38 0.000486063
10 *241:12 0.00081017
11 *241:10 0.000374732
12 *241:8 0.000334358
13 *1143:CLK *1143:RESET_B 2.99101e-05
14 *1153:CLK *1011:A 0
15 *1153:CLK *1012:B1 1.89685e-05
16 *1153:CLK *1015:A0 0.000271873
17 *1153:CLK *319:10 8.41419e-05
18 *1154:CLK *303:30 0.000253946
19 *1167:CLK *1041:A0 3.58128e-05
20 *1167:CLK *1041:A1 0.000142971
21 *1167:CLK *1066:A0 8.81262e-05
22 *1167:CLK *1066:A1 0.00013073
23 *1167:CLK *256:286 0.000124904
24 *1169:CLK *319:10 8.53177e-05
25 *241:12 *319:10 0.00018258
26 *241:38 *319:10 0.000211711
27 *1016:A *1153:CLK 0
28 *1041:S *1167:CLK 0.000303905
29 *1066:S *1167:CLK 8.52972e-05
30 *1071:A *1169:CLK 0
31 *173:23 *1153:CLK 0.000172348
32 *173:34 *1153:CLK 7.27003e-05
*RES
1 *1197:X *241:8 4.98 
2 *241:8 *241:10 0.795 
3 *241:10 *241:12 3.93 
4 *241:12 *1153:CLK 10.365 
5 *241:12 *1143:CLK 9.225 
6 *241:10 *241:38 4.44 
7 *241:38 *1154:CLK 7.5 
8 *241:38 *1169:CLK 5.94 
9 *241:8 *241:62 5.21 
10 *241:62 *1167:CLK 17.27 
11 *241:62 *1152:CLK 1.6 
*END

*D_NET *242 0.00874215
*CONN
*I *1156:CLK I *D sky130_fd_sc_hd__dfrtp_1
*I *1192:CLK I *D sky130_fd_sc_hd__dfrtp_4
*I *1164:CLK I *D sky130_fd_sc_hd__dfrtp_1
*I *1155:CLK I *D sky130_fd_sc_hd__dfrtp_1
*I *1193:CLK I *D sky130_fd_sc_hd__dfrtp_4
*I *1194:CLK I *D sky130_fd_sc_hd__dfrtp_4
*I *1130:CLK I *D sky130_fd_sc_hd__dfrtp_1
*I *1157:CLK I *D sky130_fd_sc_hd__dfrtp_1
*I *1198:X O *D sky130_fd_sc_hd__clkbuf_16
*CAP
1 *1156:CLK 0.000416573
2 *1192:CLK 0
3 *1164:CLK 0.000360404
4 *1155:CLK 0
5 *1193:CLK 0.000105126
6 *1194:CLK 0.000189663
7 *1130:CLK 0
8 *1157:CLK 0.000256241
9 *1198:X 2.15379e-05
10 *242:86 0.00087523
11 *242:31 0.000980326
12 *242:23 0.000685538
13 *242:12 0.00053047
14 *242:10 0.000869446
15 *242:6 0.000715009
16 *1156:CLK *325:97 0.000155489
17 *1157:CLK *1194:RESET_B 0
18 *1164:CLK *243:10 0.00022134
19 *1164:CLK *243:31 0.000249839
20 *1193:CLK *324:26 5.31158e-06
21 *1194:CLK *1229:A 0.000292314
22 *1194:CLK *253:72 2.97339e-05
23 *242:12 *953:A 0.000303346
24 *242:12 *243:10 6.88421e-05
25 *242:31 *953:A 4.88478e-05
26 *242:31 *253:72 5.83924e-05
27 *242:86 *979:A0 0.000159305
28 *242:86 *1273:A 0.000135589
29 *242:86 *325:97 0
30 *242:86 *326:115 1.19928e-05
31 *972:A2 *1156:CLK 0.000140647
32 *980:A *1164:CLK 0
33 *980:A *242:10 2.87672e-05
34 *980:A *242:86 1.04124e-05
35 *1127:B *1194:CLK 1.28996e-05
36 *1155:D *1157:CLK 4.22574e-05
37 *1192:D *1156:CLK 7.61811e-05
38 *1193:D *1193:CLK 0.000112595
39 *93:133 *1193:CLK 6.12027e-05
40 *93:133 *1194:CLK 0.000186995
41 *93:141 *1194:CLK 0.000138894
42 *145:10 *1156:CLK 8.54612e-05
43 *145:40 *1156:CLK 9.99317e-05
*RES
1 *1198:X *242:6 1.96 
2 *242:6 *242:10 4.52 
3 *242:10 *242:12 5.46 
4 *242:12 *1157:CLK 7.785 
5 *242:12 *242:23 2 
6 *242:23 *242:31 8.685 
7 *242:31 *1130:CLK 1.6 
8 *242:31 *1194:CLK 11.03 
9 *242:31 *1193:CLK 7.49 
10 *242:23 *1155:CLK 1.6 
11 *242:10 *1164:CLK 10.845 
12 *242:6 *242:86 10.225 
13 *242:86 *1192:CLK 1.6 
14 *242:86 *1156:CLK 14.435 
*END

*D_NET *243 0.00840512
*CONN
*I *1161:CLK I *D sky130_fd_sc_hd__dfrtp_1
*I *1162:CLK I *D sky130_fd_sc_hd__dfrtp_1
*I *1131:CLK I *D sky130_fd_sc_hd__dfrtp_1
*I *1132:CLK I *D sky130_fd_sc_hd__dfrtp_1
*I *1163:CLK I *D sky130_fd_sc_hd__dfrtp_1
*I *1181:CLK I *D sky130_fd_sc_hd__dfrtp_1
*I *1190:CLK I *D sky130_fd_sc_hd__dfrtp_1
*I *1133:CLK I *D sky130_fd_sc_hd__dfrtp_1
*I *1199:X O *D sky130_fd_sc_hd__clkbuf_16
*CAP
1 *1161:CLK 0.000187181
2 *1162:CLK 3.95995e-05
3 *1131:CLK 0.000276821
4 *1132:CLK 0
5 *1163:CLK 0
6 *1181:CLK 0.000143237
7 *1190:CLK 5.06393e-05
8 *1133:CLK 0
9 *1199:X 0.000315274
10 *243:92 0.000526304
11 *243:77 0.000957873
12 *243:66 0.000981563
13 *243:35 0.000579626
14 *243:31 0.000713907
15 *243:12 0.000328158
16 *243:10 0.000915308
17 *1131:CLK *1005:A1 0
18 *1131:CLK *1132:RESET_B 7.81924e-05
19 *1131:CLK *1273:A 0
20 *1131:CLK *256:26 0.000105271
21 *1161:CLK *923:A 7.28486e-05
22 *1161:CLK *931:A2 7.03219e-05
23 *1161:CLK *1005:A1 0
24 *1162:CLK *371:8 0.000158556
25 *1181:CLK *1181:RESET_B 3.16126e-05
26 *243:10 *1163:RESET_B 0
27 *243:31 *1164:RESET_B 8.32327e-05
28 *243:31 *367:23 0
29 *243:35 *367:23 0
30 *243:66 *930:B 0.00011852
31 *243:66 *1163:RESET_B 0
32 *946:A *243:35 0
33 *959:C1 *243:35 4.4736e-05
34 *1057:A *243:92 0.000115945
35 *1059:A *243:31 0
36 *1061:A *243:31 0
37 *1096:A *1181:CLK 8.33066e-06
38 *1131:D *1131:CLK 2.04101e-05
39 *1133:D *243:31 0.000126802
40 *1162:D *1162:CLK 7.30505e-05
41 *1163:D *243:31 0.00022201
42 *1164:CLK *243:10 0.00022134
43 *1164:CLK *243:31 0.000249839
44 *1164:D *243:31 0
45 *1181:D *1181:CLK 4.77807e-05
46 *99:51 *1161:CLK 4.77807e-05
47 *99:69 *1190:CLK 0.000122817
48 *117:12 *243:35 6.66631e-05
49 *126:10 *243:10 0.000234727
50 *242:12 *243:10 6.88421e-05
*RES
1 *1199:X *243:10 9.195 
2 *243:10 *243:12 2 
3 *243:12 *1133:CLK 1.6 
4 *243:12 *243:31 11.395 
5 *243:31 *243:35 8.48 
6 *243:35 *1190:CLK 4.74 
7 *243:35 *1181:CLK 5.94 
8 *243:31 *1163:CLK 1.6 
9 *243:10 *243:66 10.775 
10 *243:66 *1132:CLK 1.6 
11 *243:66 *243:77 6.425 
12 *243:77 *1131:CLK 8.385 
13 *243:77 *243:92 5.46 
14 *243:92 *1162:CLK 5.085 
15 *243:92 *1161:CLK 6.9 
*END

*D_NET *244 0.00602769
*CONN
*I *1189:CLK I *D sky130_fd_sc_hd__dfrtp_1
*I *1171:CLK I *D sky130_fd_sc_hd__dfrtp_1
*I *1147:CLK I *D sky130_fd_sc_hd__dfrtp_1
*I *1182:CLK I *D sky130_fd_sc_hd__dfrtp_1
*I *1172:CLK I *D sky130_fd_sc_hd__dfrtp_1
*I *1148:CLK I *D sky130_fd_sc_hd__dfrtp_1
*I *1200:X O *D sky130_fd_sc_hd__clkbuf_16
*CAP
1 *1189:CLK 0.000648784
2 *1171:CLK 3.91303e-05
3 *1147:CLK 0
4 *1182:CLK 0.000151257
5 *1172:CLK 0.000303978
6 *1148:CLK 0.000280992
7 *1200:X 0
8 *244:58 0.000830756
9 *244:44 0.00027553
10 *244:36 0.000629591
11 *244:10 0.000875872
12 *244:4 0.000653378
13 *1172:CLK *1077:A 4.82863e-05
14 *1189:CLK *1020:A1 0.0002544
15 *1189:CLK *256:330 0
16 *244:44 *1024:A1 3.0042e-05
17 *244:44 *303:30 6.26429e-05
18 *1147:D *1182:CLK 4.8086e-05
19 *1147:D *244:44 4.40324e-05
20 *1171:D *1189:CLK 0.000239156
21 *1172:D *1172:CLK 3.30434e-05
22 *30:34 *1172:CLK 0.000109989
23 *30:34 *244:10 0.000468742
*RES
1 *1200:X *244:4 1.6 
2 *244:4 *244:10 8.255 
3 *244:10 *1148:CLK 6.735 
4 *244:10 *1172:CLK 8.895 
5 *244:4 *244:36 3.9 
6 *244:36 *244:44 6.52 
7 *244:44 *1182:CLK 4.12 
8 *244:44 *1147:CLK 1.6 
9 *244:36 *244:58 1.485 
10 *244:58 *1171:CLK 2.215 
11 *244:58 *1189:CLK 15.995 
*END

*D_NET *245 0.00696004
*CONN
*I *1139:CLK I *D sky130_fd_sc_hd__dfrtp_1
*I *1170:CLK I *D sky130_fd_sc_hd__dfrtp_1
*I *1146:CLK I *D sky130_fd_sc_hd__dfrtp_1
*I *1137:CLK I *D sky130_fd_sc_hd__dfrtp_1
*I *1179:CLK I *D sky130_fd_sc_hd__dfrtp_1
*I *1138:CLK I *D sky130_fd_sc_hd__dfrtp_1
*I *1178:CLK I *D sky130_fd_sc_hd__dfrtp_1
*I *1201:X O *D sky130_fd_sc_hd__clkbuf_16
*CAP
1 *1139:CLK 0.000553465
2 *1170:CLK 0
3 *1146:CLK 0
4 *1137:CLK 0
5 *1179:CLK 5.91013e-05
6 *1138:CLK 6.27165e-05
7 *1178:CLK 0.000188994
8 *1201:X 0.000392258
9 *245:63 0.000840832
10 *245:40 0.000359914
11 *245:25 0.000625172
12 *245:14 0.000675098
13 *245:12 0.000364507
14 *245:10 0.000819672
15 *1139:CLK *992:A 1.49572e-05
16 *1139:CLK *1139:RESET_B 7.69078e-05
17 *1139:CLK *1170:RESET_B 0.000151836
18 *1139:CLK *1204:A 0.000153436
19 *1178:CLK *1077:A 4.59805e-05
20 *1179:CLK *1179:RESET_B 0.000137931
21 *245:10 *1020:A1 0
22 *245:10 *1074:A1 4.7701e-05
23 *245:10 *1207:A 0.000118652
24 *245:10 *256:344 0
25 *245:10 *256:354 0
26 *245:10 *256:367 0
27 *245:12 *1146:RESET_B 9.02174e-05
28 *245:25 *303:30 0
29 *245:40 *1179:RESET_B 7.08493e-05
30 *245:40 *292:10 0
31 *245:63 *1146:RESET_B 1.81873e-05
32 *996:B1 *1139:CLK 0.0001945
33 *1021:A *245:10 0.000139245
34 *1021:A *245:63 0
35 *1073:A *1139:CLK 2.07338e-05
36 *1073:A *245:63 0.000142163
37 *1092:S *1139:CLK 0.000217979
38 *1092:S *1179:CLK 3.65151e-05
39 *1137:D *1179:CLK 8.52883e-05
40 *1137:D *245:40 6.41532e-05
41 *1138:D *1138:CLK 6.68924e-05
42 *1139:D *1139:CLK 6.71068e-05
43 *1146:D *245:12 3.02303e-05
44 *1179:D *1179:CLK 2.68464e-05
45 *30:47 *245:25 0
46 *30:47 *245:40 0
47 *93:219 *245:63 0
48 *102:43 *245:10 0
*RES
1 *1201:X *245:10 13.355 
2 *245:10 *245:12 2.52 
3 *245:12 *245:14 3.21 
4 *245:14 *1178:CLK 4.465 
5 *245:14 *245:25 6.185 
6 *245:25 *1138:CLK 4.74 
7 *245:25 *245:40 7.325 
8 *245:40 *1179:CLK 3.775 
9 *245:40 *1137:CLK 1.6 
10 *245:12 *1146:CLK 1.6 
11 *245:10 *245:63 7.1 
12 *245:63 *1170:CLK 3.6 
13 *245:63 *1139:CLK 16.05 
*END

*D_NET *246 0.00954246
*CONN
*I *1175:CLK I *D sky130_fd_sc_hd__dfrtp_1
*I *1176:CLK I *D sky130_fd_sc_hd__dfrtp_1
*I *1141:CLK I *D sky130_fd_sc_hd__dfrtp_1
*I *1142:CLK I *D sky130_fd_sc_hd__dfrtp_1
*I *1187:CLK I *D sky130_fd_sc_hd__dfrtp_1
*I *1186:CLK I *D sky130_fd_sc_hd__dfrtp_1
*I *1174:CLK I *D sky130_fd_sc_hd__dfrtp_1
*I *1191:CLK I *D sky130_fd_sc_hd__dfrtp_1
*I *1202:X O *D sky130_fd_sc_hd__clkbuf_16
*CAP
1 *1175:CLK 0.000120304
2 *1176:CLK 0.000181175
3 *1141:CLK 5.53518e-05
4 *1142:CLK 4.01652e-05
5 *1187:CLK 4.13845e-05
6 *1186:CLK 0.00012932
7 *1174:CLK 0.000278576
8 *1191:CLK 0.000265422
9 *1202:X 0.00015406
10 *246:83 0.000836529
11 *246:52 0.000867934
12 *246:48 0.000860176
13 *246:46 0.000879365
14 *246:38 0.000439751
15 *246:23 0.000580647
16 *246:10 0.000558689
17 *1176:CLK *294:14 2.49909e-05
18 *246:23 *1191:RESET_B 6.94735e-06
19 *246:38 *1191:RESET_B 3.35889e-05
20 *246:46 *1191:RESET_B 0.000113912
21 *246:52 *942:A 2.87823e-05
22 *246:83 *1142:RESET_B 1.2695e-05
23 *246:83 *1221:A 2.69217e-05
24 *942:C *1142:CLK 5.8069e-05
25 *942:C *246:46 0.000153685
26 *942:C *246:48 1.8498e-05
27 *942:C *246:52 5.84662e-05
28 *955:A_N *1186:CLK 5.72268e-05
29 *968:B1 *1186:CLK 0.000112589
30 *1007:S *1141:CLK 0.000181006
31 *1083:A *1175:CLK 0.000119247
32 *1123:A *1174:CLK 3.59784e-05
33 *1123:A *1191:CLK 2.31329e-05
34 *1123:A *246:23 0
35 *1124:A *246:10 9.47017e-05
36 *1142:D *246:48 2.65814e-06
37 *1142:D *246:83 3.09364e-05
38 *1175:D *1175:CLK 4.66108e-05
39 *1191:D *1191:CLK 0.000114852
40 *1191:D *246:10 6.88421e-05
41 *1191:D *246:23 5.04569e-05
42 *30:113 *1174:CLK 0.000534011
43 *97:33 *1174:CLK 6.11629e-05
44 *97:33 *246:23 8.99891e-05
45 *102:112 *246:10 0
46 *102:112 *246:23 0
47 *102:112 *246:38 0
48 *115:14 *246:52 0.000599633
49 *126:198 *1174:CLK 0.000201478
50 *126:228 *1141:CLK 0.000101637
51 *134:12 *246:46 7.03219e-05
52 *219:22 *1186:CLK 9.73562e-05
53 *219:22 *1187:CLK 2.3228e-05
*RES
1 *1202:X *246:10 5.955 
2 *246:10 *1191:CLK 7.08 
3 *246:10 *246:23 2.91 
4 *246:23 *1174:CLK 11.985 
5 *246:23 *246:38 4.685 
6 *246:38 *246:46 7.78 
7 *246:46 *246:48 1.485 
8 *246:48 *246:52 11.42 
9 *246:52 *1186:CLK 7.02 
10 *246:52 *1187:CLK 4.215 
11 *246:48 *1142:CLK 2.665 
12 *246:46 *246:83 6.93 
13 *246:83 *1141:CLK 7.745 
14 *246:83 *1176:CLK 4.12 
15 *246:38 *1175:CLK 3.775 
*END

*D_NET *247 0.0118908
*CONN
*I *1134:CLK I *D sky130_fd_sc_hd__dfrtp_1
*I *1185:CLK I *D sky130_fd_sc_hd__dfrtp_1
*I *1184:CLK I *D sky130_fd_sc_hd__dfrtp_1
*I *1180:CLK I *D sky130_fd_sc_hd__dfrtp_1
*I *1177:CLK I *D sky130_fd_sc_hd__dfrtp_1
*I *1136:CLK I *D sky130_fd_sc_hd__dfrtp_1
*I *1140:CLK I *D sky130_fd_sc_hd__dfrtp_1
*I *1135:CLK I *D sky130_fd_sc_hd__dfrtp_1
*I *1173:CLK I *D sky130_fd_sc_hd__dfrtp_1
*I *1183:CLK I *D sky130_fd_sc_hd__dfrtp_4
*I *1188:CLK I *D sky130_fd_sc_hd__dfrtp_1
*I *1203:X O *D sky130_fd_sc_hd__clkbuf_16
*CAP
1 *1134:CLK 0.000329741
2 *1185:CLK 0
3 *1184:CLK 0
4 *1180:CLK 0.000156574
5 *1177:CLK 0.000111317
6 *1136:CLK 0.000331969
7 *1140:CLK 0.000309776
8 *1135:CLK 0.000120768
9 *1173:CLK 0
10 *1183:CLK 0
11 *1188:CLK 0.00024713
12 *1203:X 0.000164926
13 *247:115 0.000660344
14 *247:103 0.00085529
15 *247:97 0.000922599
16 *247:64 0.000641745
17 *247:62 0.000611665
18 *247:41 0.000853313
19 *247:32 0.000283511
20 *247:26 0.000464565
21 *247:12 0.000631037
22 *247:8 0.000720747
23 *1135:CLK *256:753 8.52758e-05
24 *1136:CLK *982:A 4.80982e-05
25 *1136:CLK *989:A0 6.37837e-05
26 *1140:CLK *989:A0 1.52184e-05
27 *1140:CLK *1231:A 1.85674e-05
28 *1177:CLK *989:A0 4.47209e-05
29 *1177:CLK *270:18 5.82411e-05
30 *247:8 *256:688 0
31 *247:8 *256:696 0
32 *247:12 *1183:RESET_B 2.20753e-05
33 *247:26 *256:688 0
34 *247:62 *941:A 4.82883e-05
35 *247:62 *989:A0 0.000125172
36 *247:62 *1173:RESET_B 0.000306744
37 *247:97 *256:688 0
38 *247:97 *256:753 0
39 *247:103 *1185:RESET_B 2.35512e-05
40 *986:B1 *1136:CLK 5.15164e-05
41 *986:C1 *1136:CLK 4.41857e-05
42 *990:A *247:62 9.91257e-05
43 *1087:A *1177:CLK 4.82863e-05
44 *1093:A *1180:CLK 2.59285e-05
45 *1100:B *1188:CLK 2.49909e-05
46 *1100:C *1188:CLK 4.80285e-05
47 *1102:A *1188:CLK 3.87203e-05
48 *1102:B *1188:CLK 7.35813e-05
49 *1102:C *1188:CLK 2.11992e-05
50 *1103:A *1188:CLK 3.00381e-05
51 *1103:A *247:12 3.00381e-05
52 *1173:D *247:26 7.06865e-05
53 *1173:D *247:32 5.01123e-05
54 *1173:D *247:41 1.39628e-05
55 *1177:D *1177:CLK 4.89295e-05
56 *1180:D *1180:CLK 2.88357e-05
57 *1183:D *247:12 1.0263e-05
58 *1184:D *1180:CLK 3.75882e-06
59 *99:22 *1135:CLK 0.000307482
60 *99:124 *247:103 0.000148938
61 *99:124 *247:115 2.01737e-05
62 *102:10 *247:26 1.08056e-05
63 *102:10 *247:97 7.80915e-05
64 *102:108 *247:8 0.000310898
65 *102:108 *247:26 0.000114926
66 *114:8 *247:8 0
67 *126:242 *1135:CLK 0.000189968
68 *127:61 *1188:CLK 7.94582e-05
69 *154:21 *1136:CLK 0.000445471
70 *154:21 *1140:CLK 9.50342e-06
71 *154:27 *1140:CLK 0.000136182
*RES
1 *1203:X *247:8 7.275 
2 *247:8 *247:12 7.97 
3 *247:12 *1188:CLK 6.88 
4 *247:12 *1183:CLK 1.6 
5 *247:8 *247:26 3.675 
6 *247:26 *247:32 3.155 
7 *247:32 *1173:CLK 1.6 
8 *247:32 *247:41 3.57 
9 *247:41 *1135:CLK 10.355 
10 *247:41 *247:62 9.9 
11 *247:62 *247:64 2 
12 *247:64 *1140:CLK 8.475 
13 *247:64 *1136:CLK 11.61 
14 *247:62 *1177:CLK 4.12 
15 *247:26 *247:97 4.44 
16 *247:97 *247:103 8.33 
17 *247:103 *247:115 10.345 
18 *247:115 *1180:CLK 8.405 
19 *247:115 *1184:CLK 1.6 
20 *247:103 *1185:CLK 1.6 
21 *247:97 *1134:CLK 8.58 
*END

*D_NET *248 0.000130807
*CONN
*I *919:A I *D sky130_fd_sc_hd__buf_4
*I *1251:X O *D sky130_fd_sc_hd__clkbuf_1
*CAP
1 *919:A 6.54036e-05
2 *1251:X 6.54036e-05
*RES
1 *1251:X *919:A 4.265 
*END

*D_NET *249 0.00368029
*CONN
*I *1013:A2 I *D sky130_fd_sc_hd__a22o_1
*I *1014:A2 I *D sky130_fd_sc_hd__o221a_2
*I *1019:A2 I *D sky130_fd_sc_hd__a21o_1
*I *1252:X O *D sky130_fd_sc_hd__buf_1
*CAP
1 *1013:A2 0
2 *1014:A2 0.000264486
3 *1019:A2 1.49213e-05
4 *1252:X 0.000653888
5 *249:27 0.000506816
6 *249:10 0.000911139
7 *1014:A2 *1017:A1 4.76503e-05
8 *1014:A2 *256:189 0
9 *1014:A2 *320:30 0
10 *1019:A2 *1019:B1 5.53062e-06
11 *249:27 *256:189 0.000117327
12 *1014:A1 *1014:A2 7.20938e-05
13 *1014:B2 *1014:A2 0.000113797
14 *1014:B2 *249:27 2.72392e-05
15 *1031:C1 *1014:A2 9.6949e-06
16 *1031:C1 *249:27 0.0001312
17 *1036:A1 *1019:A2 3.17749e-05
18 *1036:A1 *249:10 0.000417932
19 *93:18 *249:27 0.000354795
*RES
1 *1252:X *249:10 13.395 
2 *249:10 *1019:A2 3.99375 
3 *249:10 *249:27 7.925 
4 *249:27 *1014:A2 9.5 
5 *249:27 *1013:A2 1.6 
*END

*D_NET *250 0.00762212
*CONN
*I *1032:A1 I *D sky130_fd_sc_hd__mux2_1
*I *1029:B1 I *D sky130_fd_sc_hd__o211a_1
*I *1253:X O *D sky130_fd_sc_hd__buf_1
*CAP
1 *1032:A1 8.48899e-05
2 *1029:B1 0.000311977
3 *1253:X 0.00191328
4 *250:14 0.00231014
5 *1029:B1 *1028:A 0.000279787
6 *1029:B1 *252:23 2.65814e-06
7 *1032:A1 *1032:A0 5.92269e-05
8 *1032:A1 *345:12 0
9 *250:14 *969:A 0.000349592
10 *250:14 *1028:A 0.000338314
11 *250:14 *1032:A0 4.89295e-05
12 *250:14 *1047:B1 0.000230986
13 *250:14 *1215:A 4.82863e-05
14 *250:14 *255:22 0.000393126
15 *250:14 *255:35 0.000108357
16 *1029:A2 *1029:B1 0.000293093
17 *1029:C1 *1029:B1 0.000408139
18 *1033:A *1032:A1 0
19 *1047:A2 *250:14 0.000161894
20 *1049:A *250:14 7.35813e-05
21 *1157:D *250:14 8.46717e-05
22 *1253:A *250:14 2.68526e-05
23 *1258:A *1029:B1 1.12578e-05
24 *1267:A *250:14 7.35813e-05
25 *184:32 *1032:A1 9.50342e-06
*RES
1 *1253:X *250:14 35.41 
2 *250:14 *1029:B1 9.22 
3 *250:14 *1032:A1 7.235 
*END

*D_NET *251 0.00470981
*CONN
*I *1029:A1 I *D sky130_fd_sc_hd__o211a_1
*I *1030:B1 I *D sky130_fd_sc_hd__a22o_1
*I *1034:A1 I *D sky130_fd_sc_hd__mux2_1
*I *1254:X O *D sky130_fd_sc_hd__buf_1
*CAP
1 *1029:A1 3.16036e-05
2 *1030:B1 0.000556914
3 *1034:A1 0.000135987
4 *1254:X 0.000629567
5 *251:14 0.000910487
6 *251:6 0.000878756
7 *1029:A1 *252:23 1.33293e-05
8 *1034:A1 *1034:A0 0.000114649
9 *1034:A1 *320:22 0
10 *251:6 *1036:B1 0.000387296
11 *251:6 *252:23 0.000155548
12 *251:14 *252:23 7.21296e-06
13 *251:14 *320:22 0
14 *1029:A2 *1029:A1 5.58436e-05
15 *1030:A1 *1030:B1 3.26889e-05
16 *1030:B2 *1030:B1 1.34594e-05
17 *1031:B1 *1029:A1 4.82919e-05
18 *1031:B1 *251:6 8.65905e-05
19 *1031:B1 *251:14 0.000101167
20 *1149:D *1030:B1 4.66108e-05
21 *1151:D *251:6 0.000203178
22 *1158:CLK *1030:B1 0.000118978
23 *184:65 *1034:A1 0
24 *184:65 *251:14 0
25 *240:48 *1030:B1 2.59835e-05
26 *240:50 *1030:B1 0.000155671
*RES
1 *1254:X *251:6 13.435 
2 *251:6 *251:14 5.5925 
3 *251:14 *1034:A1 6.3825 
4 *251:14 *1030:B1 15.2425 
5 *251:6 *1029:A1 2.665 
*END

*D_NET *252 0.00281234
*CONN
*I *1030:A2 I *D sky130_fd_sc_hd__a22o_1
*I *1031:A2 I *D sky130_fd_sc_hd__o221a_2
*I *1036:A2 I *D sky130_fd_sc_hd__a21o_1
*I *1255:X O *D sky130_fd_sc_hd__buf_1
*CAP
1 *1030:A2 9.54747e-05
2 *1031:A2 0
3 *1036:A2 9.75885e-05
4 *1255:X 0
5 *252:23 0.000839426
6 *252:4 0.000841539
7 *1036:A2 *1036:B1 7.20191e-05
8 *252:23 *1027:A 0
9 *252:23 *1036:B1 6.28388e-05
10 *252:23 *320:22 0
11 *1029:A1 *252:23 1.33293e-05
12 *1029:A2 *252:23 4.39911e-06
13 *1029:B1 *252:23 2.65814e-06
14 *1030:A1 *1030:A2 0.00011741
15 *1030:B2 *1030:A2 6.97461e-05
16 *1031:A1 *1030:A2 8.65961e-05
17 *1031:B1 *252:23 6.55328e-05
18 *1031:B2 *1030:A2 0.000196376
19 *1036:A1 *1036:A2 1.08758e-05
20 *1258:A *252:23 0
21 *184:8 *1030:A2 4.66108e-05
22 *184:20 *1030:A2 7.67415e-06
23 *184:20 *252:23 1.94805e-05
24 *251:6 *252:23 0.000155548
25 *251:14 *252:23 7.21296e-06
*RES
1 *1255:X *252:4 1.6 
2 *252:4 *1036:A2 3.46 
3 *252:4 *252:23 13.66 
4 *252:23 *1031:A2 1.6 
5 *252:23 *1030:A2 5.2 
*END

*D_NET *253 0.0135488
*CONN
*I *972:B1 I *D sky130_fd_sc_hd__o211a_1
*I *1043:A1 I *D sky130_fd_sc_hd__mux2_1
*I *1256:X O *D sky130_fd_sc_hd__buf_1
*CAP
1 *972:B1 0.000159008
2 *1043:A1 0
3 *1256:X 0.00207267
4 *253:72 0.0030018
5 *253:40 0.00491546
6 *253:40 *948:B1 9.9033e-06
7 *253:40 *1092:A0 0
8 *253:40 *1116:B1 4.82919e-05
9 *253:40 *314:22 0.000160691
10 *253:40 *361:8 0
11 *253:40 *361:12 0
12 *253:40 *375:10 0.000137571
13 *253:40 *375:20 0.000138067
14 *253:40 *376:8 9.21064e-05
15 *253:72 *946:B 0
16 *253:72 *1043:A0 3.12916e-05
17 *253:72 *1050:A1 7.4242e-05
18 *253:72 *1060:A1 5.14556e-05
19 *253:72 *1062:A0 0
20 *253:72 *1128:A 1.14192e-05
21 *253:72 *1190:RESET_B 0
22 *253:72 *1194:RESET_B 0.000113222
23 *253:72 *1214:A 4.88428e-05
24 *253:72 *1229:A 8.23457e-05
25 *253:72 *369:8 0
26 *938:A1 *253:40 3.20618e-05
27 *951:C1 *253:72 0.000109482
28 *963:A_N *253:40 0.000156284
29 *963:B *253:40 1.69511e-05
30 *972:A2 *972:B1 9.12671e-06
31 *972:C1 *972:B1 4.77807e-05
32 *997:B2 *253:40 0
33 *1043:S *972:B1 3.25525e-05
34 *1044:A *253:72 0.000173714
35 *1050:S *253:72 9.12494e-06
36 *1097:A1 *253:40 0.000147246
37 *1116:A2 *253:40 7.49608e-05
38 *1120:A *253:72 0
39 *1139:D *253:40 0
40 *1155:D *253:72 2.86975e-05
41 *1194:CLK *253:72 2.97339e-05
42 *93:122 *253:72 0
43 *93:219 *253:40 0
44 *98:30 *253:40 0
45 *98:38 *253:40 0
46 *106:10 *253:40 1.18236e-05
47 *108:12 *253:40 0.000280749
48 *119:14 *253:72 0.000140593
49 *124:10 *253:40 1.84696e-05
50 *124:10 *253:72 0.000145374
51 *124:14 *253:40 0.000302455
52 *124:23 *253:40 1.34503e-05
53 *124:55 *253:40 3.14396e-05
54 *126:22 *253:72 0.00031186
55 *130:10 *253:40 0.000164681
56 *137:10 *253:40 5.3393e-05
57 *239:18 *253:40 0
58 *242:31 *253:72 5.83924e-05
*RES
1 *1256:X *253:40 46.7725 
2 *253:40 *253:72 49.7775 
3 *253:72 *1043:A1 1.6 
4 *253:72 *972:B1 4.135 
*END

*D_NET *254 0.00294723
*CONN
*I *973:B1 I *D sky130_fd_sc_hd__a22o_1
*I *1045:A1 I *D sky130_fd_sc_hd__mux2_1
*I *972:A1 I *D sky130_fd_sc_hd__o211a_1
*I *1257:X O *D sky130_fd_sc_hd__buf_1
*CAP
1 *973:B1 0
2 *1045:A1 0.00014085
3 *972:A1 0.000361484
4 *1257:X 0.000580732
5 *254:14 0.000635975
6 *254:10 0.000714374
7 *972:A1 *1156:RESET_B 3.72673e-05
8 *1045:A1 *1045:A0 5.09431e-05
9 *254:10 *973:A2 1.85674e-05
10 *972:A2 *972:A1 0.000155272
11 *973:B2 *254:10 8.8266e-05
12 *973:B2 *254:14 0
13 *1046:A *1045:A1 3.72081e-05
14 *1046:A *254:10 2.30292e-05
15 *1046:A *254:14 9.81975e-05
16 *1156:D *972:A1 5.062e-06
17 *1257:A *254:10 0
18 *145:10 *254:14 0
*RES
1 *1257:X *254:10 10.705 
2 *254:10 *254:14 4.655 
3 *254:14 *972:A1 8.82 
4 *254:14 *1045:A1 6.225 
5 *254:10 *973:B1 1.6 
*END

*D_NET *255 0.00684137
*CONN
*I *973:A2 I *D sky130_fd_sc_hd__a22o_1
*I *974:A2 I *D sky130_fd_sc_hd__o221a_2
*I *1047:A1 I *D sky130_fd_sc_hd__a21o_1
*I *1258:X O *D sky130_fd_sc_hd__buf_1
*CAP
1 *973:A2 9.49719e-05
2 *974:A2 0
3 *1047:A1 0
4 *1258:X 0.00129939
5 *255:35 0.00061463
6 *255:22 0.00181904
7 *255:22 *320:22 0.00100757
8 *255:35 *969:A 0.000158681
9 *255:35 *1047:B1 0.000313619
10 *255:35 *1215:A 3.00381e-05
11 *255:35 *1273:A 0
12 o_index[1] *255:35 0.000318091
13 *973:A1 *973:A2 9.07793e-05
14 *974:A1 *973:A2 4.82863e-05
15 *974:B1 *973:A2 1.08758e-05
16 *974:B2 *973:A2 0.000198945
17 *1047:A2 *255:22 2.937e-05
18 *1047:A2 *255:35 4.57009e-05
19 *1258:A *255:22 0
20 *1267:A *255:22 0.00019726
21 *140:10 *255:35 4.40812e-05
22 *250:14 *255:22 0.000393126
23 *250:14 *255:35 0.000108357
24 *254:10 *973:A2 1.85674e-05
*RES
1 *1258:X *255:22 30.885 
2 *255:22 *1047:A1 1.6 
3 *255:22 *255:35 15.13 
4 *255:35 *974:A2 1.6 
5 *255:35 *973:A2 4.48 
*END

*D_NET *256 0.0781079
*CONN
*I *1136:RESET_B I *D sky130_fd_sc_hd__dfrtp_1
*I *1134:RESET_B I *D sky130_fd_sc_hd__dfrtp_1
*I *1180:RESET_B I *D sky130_fd_sc_hd__dfrtp_1
*I *1184:RESET_B I *D sky130_fd_sc_hd__dfrtp_1
*I *1185:RESET_B I *D sky130_fd_sc_hd__dfrtp_1
*I *1183:RESET_B I *D sky130_fd_sc_hd__dfrtp_4
*I *1142:RESET_B I *D sky130_fd_sc_hd__dfrtp_1
*I *1191:RESET_B I *D sky130_fd_sc_hd__dfrtp_1
*I *1187:RESET_B I *D sky130_fd_sc_hd__dfrtp_1
*I *1186:RESET_B I *D sky130_fd_sc_hd__dfrtp_1
*I *1173:RESET_B I *D sky130_fd_sc_hd__dfrtp_1
*I *1135:RESET_B I *D sky130_fd_sc_hd__dfrtp_1
*I *1177:RESET_B I *D sky130_fd_sc_hd__dfrtp_1
*I *1140:RESET_B I *D sky130_fd_sc_hd__dfrtp_1
*I *1141:RESET_B I *D sky130_fd_sc_hd__dfrtp_1
*I *1176:RESET_B I *D sky130_fd_sc_hd__dfrtp_1
*I *1175:RESET_B I *D sky130_fd_sc_hd__dfrtp_1
*I *1174:RESET_B I *D sky130_fd_sc_hd__dfrtp_1
*I *1161:RESET_B I *D sky130_fd_sc_hd__dfrtp_1
*I *1162:RESET_B I *D sky130_fd_sc_hd__dfrtp_1
*I *1131:RESET_B I *D sky130_fd_sc_hd__dfrtp_1
*I *1165:RESET_B I *D sky130_fd_sc_hd__dfrtp_1
*I *1168:RESET_B I *D sky130_fd_sc_hd__dfrtp_1
*I *1166:RESET_B I *D sky130_fd_sc_hd__dfrtp_1
*I *1159:RESET_B I *D sky130_fd_sc_hd__dfrtp_1
*I *1149:RESET_B I *D sky130_fd_sc_hd__dfrtp_1
*I *1158:RESET_B I *D sky130_fd_sc_hd__dfrtp_1
*I *1167:RESET_B I *D sky130_fd_sc_hd__dfrtp_1
*I *1181:RESET_B I *D sky130_fd_sc_hd__dfrtp_1
*I *1190:RESET_B I *D sky130_fd_sc_hd__dfrtp_1
*I *1170:RESET_B I *D sky130_fd_sc_hd__dfrtp_1
*I *1139:RESET_B I *D sky130_fd_sc_hd__dfrtp_1
*I *1178:RESET_B I *D sky130_fd_sc_hd__dfrtp_1
*I *1182:RESET_B I *D sky130_fd_sc_hd__dfrtp_1
*I *1179:RESET_B I *D sky130_fd_sc_hd__dfrtp_1
*I *1137:RESET_B I *D sky130_fd_sc_hd__dfrtp_1
*I *1138:RESET_B I *D sky130_fd_sc_hd__dfrtp_1
*I *1146:RESET_B I *D sky130_fd_sc_hd__dfrtp_1
*I *1188:RESET_B I *D sky130_fd_sc_hd__dfrtp_1
*I *1172:RESET_B I *D sky130_fd_sc_hd__dfrtp_1
*I *1148:RESET_B I *D sky130_fd_sc_hd__dfrtp_1
*I *1171:RESET_B I *D sky130_fd_sc_hd__dfrtp_1
*I *1147:RESET_B I *D sky130_fd_sc_hd__dfrtp_1
*I *1189:RESET_B I *D sky130_fd_sc_hd__dfrtp_1
*I *1154:RESET_B I *D sky130_fd_sc_hd__dfrtp_1
*I *1169:RESET_B I *D sky130_fd_sc_hd__dfrtp_1
*I *1152:RESET_B I *D sky130_fd_sc_hd__dfrtp_1
*I *1153:RESET_B I *D sky130_fd_sc_hd__dfrtp_1
*I *1160:RESET_B I *D sky130_fd_sc_hd__dfrtp_1
*I *1150:RESET_B I *D sky130_fd_sc_hd__dfrtp_1
*I *1151:RESET_B I *D sky130_fd_sc_hd__dfrtp_1
*I *1145:RESET_B I *D sky130_fd_sc_hd__dfrtp_1
*I *1144:RESET_B I *D sky130_fd_sc_hd__dfrtp_1
*I *1143:RESET_B I *D sky130_fd_sc_hd__dfrtp_1
*I *1164:RESET_B I *D sky130_fd_sc_hd__dfrtp_1
*I *1163:RESET_B I *D sky130_fd_sc_hd__dfrtp_1
*I *1133:RESET_B I *D sky130_fd_sc_hd__dfrtp_1
*I *1192:RESET_B I *D sky130_fd_sc_hd__dfrtp_4
*I *1193:RESET_B I *D sky130_fd_sc_hd__dfrtp_4
*I *1194:RESET_B I *D sky130_fd_sc_hd__dfrtp_4
*I *1130:RESET_B I *D sky130_fd_sc_hd__dfrtp_1
*I *1157:RESET_B I *D sky130_fd_sc_hd__dfrtp_1
*I *1155:RESET_B I *D sky130_fd_sc_hd__dfrtp_1
*I *1156:RESET_B I *D sky130_fd_sc_hd__dfrtp_1
*I *1132:RESET_B I *D sky130_fd_sc_hd__dfrtp_1
*I *1259:X O *D sky130_fd_sc_hd__buf_12
*CAP
1 *1136:RESET_B 0.000429504
2 *1134:RESET_B 0.000361764
3 *1180:RESET_B 0.000152048
4 *1184:RESET_B 2.96366e-05
5 *1185:RESET_B 0.000208374
6 *1183:RESET_B 0.000207436
7 *1142:RESET_B 0.000114378
8 *1191:RESET_B 0.000311357
9 *1187:RESET_B 0
10 *1186:RESET_B 0.000256008
11 *1173:RESET_B 0.000320392
12 *1135:RESET_B 9.04538e-06
13 *1177:RESET_B 6.58946e-05
14 *1140:RESET_B 7.68987e-05
15 *1141:RESET_B 4.54134e-05
16 *1176:RESET_B 0
17 *1175:RESET_B 0.000268059
18 *1174:RESET_B 2.37024e-05
19 *1161:RESET_B 7.9926e-05
20 *1162:RESET_B 5.52899e-05
21 *1131:RESET_B 0.000135677
22 *1165:RESET_B 6.11274e-06
23 *1168:RESET_B 6.16199e-05
24 *1166:RESET_B 0
25 *1159:RESET_B 0.000273578
26 *1149:RESET_B 0
27 *1158:RESET_B 0.000569833
28 *1167:RESET_B 1.05907e-05
29 *1181:RESET_B 0.000867058
30 *1190:RESET_B 0.000125785
31 *1170:RESET_B 0.000405652
32 *1139:RESET_B 0.000666396
33 *1178:RESET_B 5.10727e-05
34 *1182:RESET_B 0.00076285
35 *1179:RESET_B 0.00156022
36 *1137:RESET_B 0.000223505
37 *1138:RESET_B 0
38 *1146:RESET_B 0.000109226
39 *1188:RESET_B 0.000362618
40 *1172:RESET_B 0.000362618
41 *1148:RESET_B 0.000243811
42 *1171:RESET_B 0
43 *1147:RESET_B 0
44 *1189:RESET_B 0.000358309
45 *1154:RESET_B 0.000274059
46 *1169:RESET_B 3.53178e-05
47 *1152:RESET_B 5.54497e-05
48 *1153:RESET_B 4.82642e-05
49 *1160:RESET_B 3.28536e-05
50 *1150:RESET_B 0.000328544
51 *1151:RESET_B 6.05638e-05
52 *1145:RESET_B 2.56159e-05
53 *1144:RESET_B 0
54 *1143:RESET_B 0.000300853
55 *1164:RESET_B 0.00129811
56 *1163:RESET_B 0.00115529
57 *1133:RESET_B 0.000692528
58 *1192:RESET_B 0
59 *1193:RESET_B 2.71867e-05
60 *1194:RESET_B 0.000285824
61 *1130:RESET_B 0
62 *1157:RESET_B 0.000178154
63 *1155:RESET_B 0.000542192
64 *1156:RESET_B 0.000198537
65 *1132:RESET_B 4.01568e-05
66 *1259:X 5.91549e-05
67 *256:771 0.000885917
68 *256:753 0.0011319
69 *256:720 0.000591913
70 *256:702 0.000906096
71 *256:696 0.000955198
72 *256:688 0.000647783
73 *256:682 0.000605682
74 *256:668 0.000917734
75 *256:656 0.000533434
76 *256:654 0.000805922
77 *256:638 0.00034109
78 *256:628 0.000510092
79 *256:618 0.000412077
80 *256:611 0.000203941
81 *256:599 0.000595131
82 *256:589 0.000424094
83 *256:512 0.000834963
84 *256:510 0.000836181
85 *256:471 0.00143948
86 *256:461 0.00106517
87 *256:405 0.00126199
88 *256:393 0.00140494
89 *256:377 0.000348548
90 *256:367 0.00039066
91 *256:354 0.00017667
92 *256:344 0.000386174
93 *256:337 0.000160353
94 *256:330 0.000240186
95 *256:318 0.000604475
96 *256:296 0.000464038
97 *256:292 0.000445836
98 *256:286 0.00102772
99 *256:266 0.000437921
100 *256:254 0.000555778
101 *256:222 0.000758939
102 *256:210 0.000429839
103 *256:189 0.000704773
104 *256:179 0.000796643
105 *256:177 0.00122491
106 *256:175 0.000860312
107 *256:171 0.000211495
108 *256:169 0.000384902
109 *256:165 0.00070936
110 *256:83 0.000453148
111 *256:77 0.000760398
112 *256:64 0.000744042
113 *256:40 0.00092613
114 *256:38 0.000346294
115 *256:36 0.000580221
116 *256:26 0.000513824
117 *256:16 0.000794486
118 *256:12 0.000485734
119 *256:10 0.000328502
120 *256:8 0.000420011
121 *1133:RESET_B *1220:A 0.000277223
122 *1134:RESET_B *983:A 7.15312e-05
123 *1134:RESET_B *327:6 2.65814e-06
124 *1136:RESET_B *985:B2 0.00033072
125 *1136:RESET_B *281:29 4.95592e-05
126 *1137:RESET_B *996:B2 7.17885e-05
127 *1137:RESET_B *998:A0 0.000111293
128 *1137:RESET_B *303:47 0.00014791
129 *1139:RESET_B *992:A 4.77769e-05
130 *1139:RESET_B *1204:A 3.70755e-05
131 *1139:RESET_B *333:8 2.75145e-05
132 *1141:RESET_B *1084:A1 7.77983e-05
133 *1143:RESET_B *1012:B1 0.000187071
134 *1143:RESET_B *319:10 8.17641e-05
135 *1148:RESET_B *1024:A1 0.00012657
136 *1148:RESET_B *1207:A 0.000499725
137 *1150:RESET_B *1026:A 3.00381e-05
138 *1150:RESET_B *320:22 0.000116516
139 *1150:RESET_B *347:6 0.000159534
140 *1154:RESET_B *1022:A1 0.000230869
141 *1154:RESET_B *1070:A0 0.000129705
142 *1154:RESET_B *1070:A1 0.000122337
143 *1154:RESET_B *1205:A 0.000196647
144 *1154:RESET_B *303:30 0.000135081
145 *1155:RESET_B *1043:A0 1.51374e-05
146 *1155:RESET_B *1236:A 6.2053e-05
147 *1155:RESET_B *351:6 4.31127e-05
148 *1157:RESET_B *1043:A0 7.03219e-05
149 *1157:RESET_B *1273:A 0
150 *1157:RESET_B *326:115 9.3646e-05
151 *1159:RESET_B *326:36 0.000120524
152 *1162:RESET_B *371:8 0.000115311
153 *1163:RESET_B *930:B 6.12706e-05
154 *1163:RESET_B *1224:A 8.1609e-05
155 *1164:RESET_B *930:B 7.00889e-06
156 *1164:RESET_B *1060:A0 2.03578e-05
157 *1164:RESET_B *1222:A 0.000201508
158 *1164:RESET_B *1224:A 0
159 *1164:RESET_B *367:6 2.40101e-05
160 *1167:RESET_B *951:A2 9.67081e-06
161 *1170:RESET_B *997:A2 8.44308e-05
162 *1173:RESET_B *941:A 8.92366e-05
163 *1173:RESET_B *984:A2 0
164 *1175:RESET_B *1080:A0 0.000235351
165 *1175:RESET_B *1080:A1 4.89395e-05
166 *1177:RESET_B *270:16 0.000116416
167 *1177:RESET_B *270:18 4.66108e-05
168 *1181:RESET_B *266:16 0.000122817
169 *1182:RESET_B *1274:A 0.000158845
170 *1182:RESET_B *319:10 0
171 *1183:RESET_B *355:6 4.88478e-05
172 *1185:RESET_B *929:A 0.000159488
173 *1188:RESET_B *937:B_N 0.000198939
174 *1188:RESET_B *1076:A0 5.8186e-05
175 *1188:RESET_B *363:21 2.59926e-05
176 *1188:RESET_B *375:10 6.16762e-05
177 *1190:RESET_B *324:70 0.000119873
178 *1191:RESET_B *932:A1 0.00044661
179 *1193:RESET_B *325:8 2.53494e-05
180 *1194:RESET_B *1128:A 7.23602e-05
181 *1194:RESET_B *326:8 3.66286e-05
182 *1194:RESET_B *326:18 4.4133e-05
183 *256:12 *1054:A0 0.000125123
184 *256:12 *1218:A 2.85623e-05
185 *256:16 *1054:A0 0.000113222
186 *256:16 *1218:A 0.000114518
187 *256:26 *1217:A 0.000236733
188 *256:36 *977:A0 0.000116621
189 *256:36 *1005:A1 0.000252977
190 *256:36 *325:97 0.000108322
191 *256:38 *324:106 0
192 *256:38 *325:97 0.000157344
193 *256:77 *325:8 6.71711e-05
194 *256:77 *325:97 0.000407424
195 *256:77 *326:115 3.86214e-05
196 *256:83 *325:8 3.09162e-05
197 *256:165 *367:6 5.60908e-05
198 *256:169 *1064:A0 0.00046143
199 *256:171 *1064:A1 0.000110087
200 *256:175 *1064:A1 4.87965e-05
201 *256:189 *1017:A1 0
202 *256:254 *326:53 0.000430392
203 *256:266 *1022:A1 0.0003042
204 *256:266 *326:53 4.34707e-05
205 *256:286 *1022:A1 0.000236577
206 *256:286 *1041:A0 9.06015e-05
207 *256:286 *1066:A1 5.94962e-05
208 *256:292 *1020:A1 0
209 *256:292 *1022:A1 0
210 *256:292 *1041:A0 0
211 *256:292 *1070:A1 0
212 *256:296 *366:6 0.000115762
213 *256:318 *1020:A1 0
214 *256:330 *1020:A1 0
215 *256:337 *296:10 0.000156284
216 *256:344 *1074:A1 0.000217991
217 *256:344 *296:10 9.24825e-05
218 *256:354 *1207:A 0.00011852
219 *256:367 *1207:A 0.000185405
220 *256:377 *303:47 0.000156916
221 *256:405 *260:12 0.000135382
222 *256:405 *319:10 0
223 *256:461 *1066:A1 0.000191521
224 *256:471 *951:A2 8.48743e-05
225 *256:471 *364:6 2.12557e-05
226 *256:628 *1080:A1 0
227 *256:628 *1227:A 0.000116633
228 *256:628 *1230:A 7.4027e-05
229 *256:638 *985:B2 2.92496e-05
230 *256:654 *985:B2 0.000169713
231 *256:688 *941:A 0.000140721
232 *256:688 *355:17 0
233 *256:696 *355:17 0
234 *256:696 *355:53 2.91399e-05
235 *256:702 *1112:B1 2.73688e-05
236 *256:702 *1247:A 4.78564e-05
237 *256:702 *355:53 9.79895e-05
238 *256:702 *355:61 8.09928e-05
239 *256:720 *355:53 3.7725e-05
240 *256:753 *929:A 2.99731e-05
241 *256:771 *926:A 5.09431e-05
242 *935:C1 *1188:RESET_B 0.000386221
243 *951:B1 *256:471 0
244 *972:A1 *1156:RESET_B 3.72673e-05
245 *984:C1 *1134:RESET_B 2.59285e-05
246 *990:A *1134:RESET_B 0.000114649
247 *990:A *1173:RESET_B 0.000178946
248 *996:B1 *1170:RESET_B 0.000175721
249 *1013:B1 *256:254 7.36562e-05
250 *1014:A1 *256:189 0
251 *1014:A2 *256:189 0
252 *1021:A *256:367 3.68682e-05
253 *1021:A *256:377 6.19643e-05
254 *1024:S *1148:RESET_B 8.65905e-05
255 *1031:C1 *1150:RESET_B 0
256 *1031:C1 *256:189 7.47145e-05
257 *1031:C1 *256:222 0.000667427
258 *1036:A1 *256:222 0
259 *1041:S *256:266 0.000277442
260 *1041:S *256:286 0.000179071
261 *1043:S *1155:RESET_B 4.12995e-05
262 *1059:A *1163:RESET_B 0.000173743
263 *1059:A *1164:RESET_B 0.000116095
264 *1061:A *1164:RESET_B 0
265 *1070:S *1154:RESET_B 2.75229e-05
266 *1076:S *256:344 3.09164e-05
267 *1076:S *256:354 0.000153794
268 *1076:S *256:367 0.000175894
269 *1080:S *1175:RESET_B 6.81992e-05
270 *1081:A *1175:RESET_B 8.64421e-05
271 *1085:A *256:628 0
272 *1086:S *256:628 0
273 *1086:S *256:638 0
274 *1087:A *256:654 0
275 *1092:S *1139:RESET_B 0.000275948
276 *1092:S *1179:RESET_B 4.50253e-05
277 *1092:S *256:393 2.20753e-05
278 *1096:A *1181:RESET_B 2.69153e-05
279 *1117:A *256:292 0
280 *1120:A *1190:RESET_B 0.00015437
281 *1120:A *256:165 7.47737e-05
282 *1120:A *256:471 0.000112589
283 *1121:A *1181:RESET_B 4.90227e-05
284 *1125:A *1157:RESET_B 0.000172479
285 *1125:A *256:77 6.04973e-05
286 *1129:B *1194:RESET_B 0
287 *1131:CLK *1132:RESET_B 7.81924e-05
288 *1131:CLK *256:26 0.000105271
289 *1131:D *256:26 5.90156e-05
290 *1131:D *256:36 4.19797e-05
291 *1134:D *256:771 2.69153e-05
292 *1135:CLK *256:753 8.52758e-05
293 *1135:D *1134:RESET_B 6.19969e-05
294 *1135:D *1173:RESET_B 8.33066e-06
295 *1139:CLK *1139:RESET_B 7.69078e-05
296 *1139:CLK *1170:RESET_B 0.000151836
297 *1142:D *1142:RESET_B 4.66108e-05
298 *1142:D *1191:RESET_B 2.85623e-05
299 *1142:D *256:720 0.000243166
300 *1143:CLK *1143:RESET_B 2.99101e-05
301 *1146:D *256:377 7.03276e-05
302 *1148:D *1182:RESET_B 0
303 *1156:D *1156:RESET_B 0.000156482
304 *1157:CLK *1194:RESET_B 0
305 *1158:CLK *1158:RESET_B 0.000473409
306 *1158:D *1158:RESET_B 0.000114899
307 *1159:CLK *1159:RESET_B 2.21074e-05
308 *1159:D *1159:RESET_B 4.77769e-05
309 *1160:D *256:179 0.000197833
310 *1165:CLK *256:169 2.16917e-05
311 *1167:CLK *256:286 0.000124904
312 *1168:CLK *1168:RESET_B 0
313 *1170:D *1170:RESET_B 4.89395e-05
314 *1174:D *256:599 0
315 *1176:D *256:618 9.10613e-05
316 *1176:D *256:628 0.000148122
317 *1179:CLK *1179:RESET_B 0.000137931
318 *1179:D *1179:RESET_B 3.50562e-05
319 *1181:CLK *1181:RESET_B 3.16126e-05
320 *1181:D *1181:RESET_B 6.63221e-05
321 *1189:CLK *256:330 0
322 *1189:D *1189:RESET_B 9.52646e-05
323 *1197:A *256:461 0
324 *1276:A *1181:RESET_B 0.000134505
325 *30:113 *1174:RESET_B 1.54481e-05
326 *30:113 *256:599 0.000179451
327 *30:113 *256:611 0.000333568
328 *30:113 *256:618 0.000114518
329 *30:113 *256:628 5.0096e-05
330 *93:12 *256:189 0
331 *93:18 *256:189 2.05583e-05
332 *93:81 *256:189 9.54469e-05
333 *93:100 *256:169 0.000312182
334 *93:141 *1194:RESET_B 2.86869e-05
335 *97:33 *1191:RESET_B 0.00013687
336 *98:38 *1190:RESET_B 7.22565e-05
337 *98:38 *256:471 0.000105518
338 *98:53 *1181:RESET_B 0.000121835
339 *99:22 *1135:RESET_B 4.11729e-05
340 *99:22 *1136:RESET_B 7.26348e-05
341 *99:22 *256:656 0.000407353
342 *99:22 *256:668 0.000150644
343 *99:51 *1161:RESET_B 8.96106e-05
344 *99:51 *256:10 0
345 *99:51 *256:589 0
346 *99:51 *256:599 0
347 *99:69 *1190:RESET_B 8.39948e-05
348 *102:54 *1188:RESET_B 6.52265e-05
349 *114:8 *256:696 0.00013375
350 *124:55 *256:471 0.000230626
351 *126:26 *1165:RESET_B 9.7048e-06
352 *126:26 *256:165 4.21613e-06
353 *126:26 *256:169 7.46256e-05
354 *126:32 *1168:RESET_B 0.000108322
355 *126:32 *256:171 5.16418e-05
356 *126:54 *256:292 0
357 *126:54 *256:461 7.96104e-06
358 *126:69 *1154:RESET_B 0
359 *126:69 *256:292 0.000206824
360 *126:69 *256:318 0.000133075
361 *126:69 *256:330 0.000347614
362 *126:69 *256:337 0.00021364
363 *126:69 *256:344 0.000301349
364 *126:144 *1163:RESET_B 6.52906e-05
365 *126:202 *1175:RESET_B 4.27109e-05
366 *126:242 *1173:RESET_B 0
367 *126:242 *256:682 1.03755e-05
368 *126:242 *256:688 0
369 *126:242 *256:753 0
370 *134:12 *1191:RESET_B 0.000178444
371 *134:12 *256:720 0.000105393
372 *145:10 *1156:RESET_B 0.000200605
373 *145:40 *1156:RESET_B 5.34461e-05
374 *145:40 *256:38 0.000153443
375 *145:40 *256:40 0.000340692
376 *145:55 *256:36 0
377 *145:55 *256:38 0
378 *162:23 *256:377 8.34144e-06
379 *162:25 *256:367 5.4256e-05
380 *162:25 *256:377 7.74144e-05
381 *162:27 *256:367 7.21296e-06
382 *169:8 *256:254 6.11019e-05
383 *173:16 *1143:RESET_B 1.61461e-05
384 *173:16 *256:189 0.000143266
385 *173:34 *1153:RESET_B 4.51129e-05
386 *173:34 *256:254 2.42236e-05
387 *173:34 *256:266 0.000155899
388 *184:32 *1158:RESET_B 0
389 *239:59 *1164:RESET_B 5.33787e-05
390 *240:25 *256:175 0
391 *240:25 *256:510 0.000244132
392 *240:31 *1159:RESET_B 2.69217e-05
393 *240:50 *1150:RESET_B 8.6932e-05
394 *240:73 *1145:RESET_B 4.58556e-05
395 *240:73 *256:179 2.35435e-05
396 *240:73 *256:189 8.71695e-06
397 *240:125 *256:171 0
398 *240:125 *256:175 0
399 *243:10 *1163:RESET_B 0
400 *243:31 *1164:RESET_B 8.32327e-05
401 *243:66 *1163:RESET_B 0
402 *245:10 *256:344 0
403 *245:10 *256:354 0
404 *245:10 *256:367 0
405 *245:12 *1146:RESET_B 9.02174e-05
406 *245:40 *1179:RESET_B 7.08493e-05
407 *245:63 *1146:RESET_B 1.81873e-05
408 *246:23 *1191:RESET_B 6.94735e-06
409 *246:38 *1191:RESET_B 3.35889e-05
410 *246:46 *1191:RESET_B 0.000113912
411 *246:83 *1142:RESET_B 1.2695e-05
412 *247:8 *256:688 0
413 *247:8 *256:696 0
414 *247:12 *1183:RESET_B 2.20753e-05
415 *247:26 *256:688 0
416 *247:62 *1173:RESET_B 0.000306744
417 *247:97 *256:688 0
418 *247:97 *256:753 0
419 *247:103 *1185:RESET_B 2.35512e-05
420 *249:27 *256:189 0.000117327
421 *253:72 *1190:RESET_B 0
422 *253:72 *1194:RESET_B 0.000113222
*RES
1 *1259:X *256:8 4.395 
2 *256:8 *256:10 1.89 
3 *256:10 *256:12 2.655 
4 *256:12 *256:16 7.46 
5 *256:16 *256:26 6.21 
6 *256:26 *1132:RESET_B 0.7425 
7 *256:26 *256:36 6.185 
8 *256:36 *256:38 3.93 
9 *256:38 *256:40 4.185 
10 *256:40 *1156:RESET_B 6.7925 
11 *256:40 *1155:RESET_B 8.5475 
12 *1155:RESET_B *256:64 2 
13 *256:64 *1157:RESET_B 6.185 
14 *256:64 *256:77 10.04 
15 *256:77 *256:83 4.265 
16 *256:83 *1130:RESET_B 2 
17 *256:83 *1194:RESET_B 7.3775 
18 *256:77 *1193:RESET_B 0.7575 
19 *256:38 *1192:RESET_B 2 
20 *256:36 *1133:RESET_B 7.2275 
21 *1133:RESET_B *1163:RESET_B 11.65 
22 *1163:RESET_B *1164:RESET_B 17.17 
23 *1164:RESET_B *256:165 7.6125 
24 *256:165 *256:169 7.625 
25 *256:169 *256:171 2.91 
26 *256:171 *256:175 3.125 
27 *256:175 *256:177 5.625 
28 *256:177 *256:179 4.245 
29 *256:179 *256:189 9.845 
30 *256:189 *1143:RESET_B 7.8275 
31 *256:189 *1144:RESET_B 2 
32 *256:179 *256:210 0.615 
33 *256:210 *1145:RESET_B 1.0875 
34 *256:210 *256:222 12.01 
35 *256:222 *1151:RESET_B 0.7425 
36 *256:222 *1150:RESET_B 10.0225 
37 *256:177 *1160:RESET_B 0.7575 
38 *256:177 *256:254 10.01 
39 *256:254 *1153:RESET_B 2.7425 
40 *256:254 *256:266 5.655 
41 *256:266 *1152:RESET_B 2.7575 
42 *256:266 *256:286 7.895 
43 *256:286 *256:292 6.29 
44 *256:292 *256:296 4.52 
45 *256:296 *1169:RESET_B 0.3975 
46 *256:296 *1154:RESET_B 11.5525 
47 *256:292 *256:318 1.635 
48 *256:318 *1189:RESET_B 7.2425 
49 *256:318 *256:330 4.185 
50 *256:330 *1147:RESET_B 2 
51 *256:330 *256:337 2.655 
52 *256:337 *1171:RESET_B 2 
53 *256:337 *256:344 3.93 
54 *256:344 *1148:RESET_B 7.9175 
55 *256:344 *256:354 1.89 
56 *256:354 *1172:RESET_B 2 
57 *1172:RESET_B *1188:RESET_B 8.28 
58 *256:354 *256:367 3.93 
59 *256:367 *1146:RESET_B 3.7775 
60 *256:367 *256:377 4.44 
61 *256:377 *1138:RESET_B 2 
62 *256:377 *1137:RESET_B 6.185 
63 *1137:RESET_B *256:393 0.7575 
64 *256:393 *1179:RESET_B 13.6125 
65 *1179:RESET_B *256:405 10.01 
66 *256:405 *1182:RESET_B 14.9975 
67 *256:405 *1178:RESET_B 2.7575 
68 *256:393 *1139:RESET_B 6.0375 
69 *1139:RESET_B *1170:RESET_B 12.0475 
70 *256:286 *256:461 6.03277 
71 *256:461 *256:471 10.6225 
72 *256:471 *1190:RESET_B 5.3225 
73 *256:471 *1181:RESET_B 16.6925 
74 *256:461 *1167:RESET_B 2.2325 
75 *256:175 *256:510 6.995 
76 *256:510 *256:512 4.185 
77 *256:512 *1158:RESET_B 10.5425 
78 *256:512 *1149:RESET_B 2 
79 *256:510 *1159:RESET_B 6.3275 
80 *256:171 *1166:RESET_B 2 
81 *256:169 *1168:RESET_B 3.38 
82 *256:165 *1165:RESET_B 0.3975 
83 *256:16 *1131:RESET_B 1.7025 
84 *256:12 *1162:RESET_B 3.0875 
85 *256:10 *1161:RESET_B 3.4325 
86 *256:8 *256:589 3.93 
87 *256:589 *1174:RESET_B 2.3975 
88 *256:589 *256:599 2.91 
89 *256:599 *1175:RESET_B 7.2425 
90 *256:599 *256:611 3.93 
91 *256:611 *1176:RESET_B 2 
92 *256:611 *256:618 1.38 
93 *256:618 *1141:RESET_B 2.7425 
94 *256:618 *256:628 6.735 
95 *256:628 *1140:RESET_B 3.0875 
96 *256:628 *256:638 1.635 
97 *256:638 *1177:RESET_B 3.4325 
98 *256:638 *256:654 5.465 
99 *256:654 *256:656 3.9 
100 *256:656 *1135:RESET_B 0.3975 
101 *256:656 *256:668 6.26 
102 *256:668 *1173:RESET_B 7.7225 
103 *1173:RESET_B *256:682 3.7175 
104 *256:682 *256:688 5.2125 
105 *256:688 *256:696 4.7825 
106 *256:696 *256:702 10.8725 
107 *256:702 *1186:RESET_B 6.185 
108 *256:702 *1187:RESET_B 2 
109 *256:696 *256:720 5.8775 
110 *256:720 *1191:RESET_B 11.075 
111 *256:720 *1142:RESET_B 3.5525 
112 *256:688 *1183:RESET_B 4.8125 
113 *256:682 *256:753 4.0575 
114 *256:753 *1185:RESET_B 5.5025 
115 *256:753 *256:771 12.47 
116 *256:771 *1184:RESET_B 0.3975 
117 *256:771 *1180:RESET_B 6.2275 
118 *256:668 *1134:RESET_B 8.2925 
119 *256:654 *1136:RESET_B 11.7025 
*END

*D_NET *257 0.00110356
*CONN
*I *1209:A I *D sky130_fd_sc_hd__dlygate4sd3_1
*I *1269:A I *D sky130_fd_sc_hd__buf_2
*I *1176:Q O *D sky130_fd_sc_hd__dfrtp_1
*CAP
1 *1209:A 7.16782e-05
2 *1269:A 0.000163573
3 *1176:Q 0.00021139
4 *257:8 0.000446642
5 *1209:A *270:10 5.6705e-05
6 *1269:A *270:10 5.04576e-06
7 *1269:A *270:16 8.79846e-05
8 o_bucket[0] *1269:A 6.05437e-05
*RES
1 *1176:Q *257:8 5.775 
2 *257:8 *1269:A 7.155 
3 *257:8 *1209:A 4.98 
*END

*D_NET *258 0.000441223
*CONN
*I *1216:A I *D sky130_fd_sc_hd__dlygate4sd3_1
*I *1270:A I *D sky130_fd_sc_hd__buf_2
*I *1177:Q O *D sky130_fd_sc_hd__dfrtp_1
*CAP
1 *1216:A 0.000113664
2 *1270:A 0
3 *1177:Q 9.17159e-05
4 *258:8 0.00020538
5 o_bucket[1] *258:8 3.04641e-05
*RES
1 *1177:Q *258:8 5.235 
2 *258:8 *1270:A 3.6 
3 *258:8 *1216:A 5.49 
*END

*D_NET *259 0.00162069
*CONN
*I *984:B1 I *D sky130_fd_sc_hd__o211a_1
*I *987:A1 I *D sky130_fd_sc_hd__mux2_1
*I *1260:X O *D sky130_fd_sc_hd__buf_1
*CAP
1 *984:B1 0.000185519
2 *987:A1 6.7818e-05
3 *1260:X 0.000174006
4 *259:14 0.000427343
5 *984:B1 *987:A0 3.56402e-05
6 *987:A1 *987:A0 0.000101046
7 *259:14 *983:A 0.000203481
8 *259:14 *987:A0 0.000133623
9 *259:14 *314:14 2.75145e-05
10 *987:S *984:B1 0.000148919
11 *987:S *987:A1 0.00011578
*RES
1 *1260:X *259:14 9.83 
2 *259:14 *987:A1 3.895 
3 *259:14 *984:B1 9.23 
*END

*D_NET *260 0.000726253
*CONN
*I *1210:A I *D sky130_fd_sc_hd__dlygate4sd3_1
*I *1271:A I *D sky130_fd_sc_hd__clkbuf_4
*I *1178:Q O *D sky130_fd_sc_hd__dfrtp_1
*CAP
1 *1210:A 0.000152208
2 *1271:A 0
3 *1178:Q 0.000143227
4 *260:12 0.000295435
5 o_bucket[2] *260:12 0
6 *256:405 *260:12 0.000135382
*RES
1 *1178:Q *260:12 8.03 
2 *260:12 *1271:A 1.6 
3 *260:12 *1210:A 3.775 
*END

*D_NET *261 0.000614141
*CONN
*I *1272:A I *D sky130_fd_sc_hd__buf_2
*I *1234:A I *D sky130_fd_sc_hd__dlygate4sd3_1
*I *1180:Q O *D sky130_fd_sc_hd__dfrtp_1
*CAP
1 *1272:A 0
2 *1234:A 3.18739e-05
3 *1180:Q 0.00012264
4 *261:12 0.000154514
5 *1234:A *314:14 0.000164874
6 *261:12 *314:14 3.66286e-05
7 o_index[0] *1234:A 7.60965e-05
8 o_index[0] *261:12 2.75145e-05
*RES
1 *1180:Q *261:12 7.685 
2 *261:12 *1234:A 3.085 
3 *261:12 *1272:A 1.6 
*END

*D_NET *262 0.00532837
*CONN
*I *1238:A I *D sky130_fd_sc_hd__dlygate4sd3_1
*I *1273:A I *D sky130_fd_sc_hd__clkbuf_4
*I *1181:Q O *D sky130_fd_sc_hd__dfrtp_1
*CAP
1 *1238:A 0.000152807
2 *1273:A 0.00132537
3 *1181:Q 0.000300966
4 *262:12 0.00177914
5 *1273:A *979:A0 0.000140852
6 *1273:A *1007:A1 0
7 *1273:A *1058:A1 3.31204e-05
8 *1273:A *325:97 0
9 *1273:A *353:10 0.000116165
10 *262:12 *931:A2 5.02564e-05
11 *931:A1 *1238:A 7.27704e-06
12 *931:B1 *262:12 0.000194295
13 *931:B2 *262:12 1.34587e-05
14 *932:C1 *262:12 4.77769e-05
15 *972:C1 *1273:A 0.000302146
16 *974:B1 *1273:A 0
17 *1125:A *1273:A 0.000348134
18 *1131:CLK *1273:A 0
19 *1132:D *1273:A 6.55328e-05
20 *1157:RESET_B *1273:A 0
21 *99:51 *1238:A 0.000129341
22 *99:51 *1273:A 9.42867e-05
23 *99:59 *1273:A 9.18556e-05
24 *126:144 *1273:A 0
25 *140:10 *1273:A 0
26 *242:86 *1273:A 0.000135589
27 *255:35 *1273:A 0
*RES
1 *1181:Q *262:12 8.31 
2 *262:12 *1273:A 29.505 
3 *262:12 *1238:A 6.12 
*END

*D_NET *263 0.000749726
*CONN
*I *1213:A I *D sky130_fd_sc_hd__dlygate4sd3_1
*I *1274:A I *D sky130_fd_sc_hd__clkbuf_4
*I *1182:Q O *D sky130_fd_sc_hd__dfrtp_1
*CAP
1 *1213:A 3.21242e-05
2 *1274:A 7.45958e-05
3 *1182:Q 0.00018872
4 *263:12 0.00029544
5 o_index[2] *1274:A 0
6 *1182:RESET_B *1274:A 0.000158845
*RES
1 *1182:Q *263:12 8.465 
2 *263:12 *1274:A 7.49 
3 *263:12 *1213:A 2.05 
*END

*D_NET *264 0.000207527
*CONN
*I *1275:A I *D sky130_fd_sc_hd__clkbuf_4
*I *1179:Q O *D sky130_fd_sc_hd__dfrtp_1
*CAP
1 *1275:A 0.000103763
2 *1179:Q 0.000103763
3 o_valid *1275:A 0
*RES
1 *1179:Q *1275:A 8.835 
*END

*D_NET *265 0.00105941
*CONN
*I *961:A2 I *D sky130_fd_sc_hd__a31o_1
*I *1268:X O *D sky130_fd_sc_hd__clkbuf_1
*CAP
1 *961:A2 0.000248854
2 *1268:X 0.000248854
3 *961:A2 *1268:A 0.000115464
4 *961:A2 *266:16 6.99611e-05
5 *952:D *961:A2 0.000107154
6 *1090:B *961:A2 4.82919e-05
7 *1094:A1 *961:A2 4.82863e-05
8 *1094:B1 *961:A2 4.60814e-05
9 *1095:A1 *961:A2 9.55262e-06
10 *124:55 *961:A2 2.01737e-05
11 *124:63 *961:A2 1.27189e-05
12 *213:20 *961:A2 8.40213e-05
*RES
1 *1268:X *961:A2 12.51 
*END

*D_NET *266 0.0013943
*CONN
*I *1090:A I *D sky130_fd_sc_hd__nand2_1
*I *1268:A I *D sky130_fd_sc_hd__clkbuf_1
*I *1276:X O *D sky130_fd_sc_hd__clkbuf_1
*CAP
1 *1090:A 0
2 *1268:A 0.000120904
3 *1276:X 0.000213158
4 *266:16 0.000334062
5 *961:A2 *1268:A 0.000115464
6 *961:A2 *266:16 6.99611e-05
7 *967:B1 *266:16 1.64067e-05
8 *1090:B *266:16 4.77807e-05
9 *1094:B1 *266:16 0
10 *1095:A1 *266:16 0.000194291
11 *1181:RESET_B *266:16 0.000122817
12 *105:10 *1268:A 4.99619e-05
13 *120:22 *266:16 0.000109489
*RES
1 *1276:X *266:16 10.31 
2 *266:16 *1268:A 8.045 
3 *266:16 *1090:A 1.6 
*END

*D_NET *267 0.000175909
*CONN
*I *1002:B1 I *D sky130_fd_sc_hd__a21o_1
*I *1204:X O *D sky130_fd_sc_hd__dlygate4sd3_1
*CAP
1 *1002:B1 5.024e-05
2 *1204:X 5.024e-05
3 *1002:B1 *314:22 7.54285e-05
*RES
1 *1204:X *1002:B1 4.34 
*END

*D_NET *268 0.000681476
*CONN
*I *1047:B1 I *D sky130_fd_sc_hd__a21o_1
*I *1215:X O *D sky130_fd_sc_hd__dlygate4sd3_1
*CAP
1 *1047:B1 4.39706e-05
2 *1215:X 4.39706e-05
3 *1047:A2 *1047:B1 4.89295e-05
4 *250:14 *1047:B1 0.000230986
5 *255:35 *1047:B1 0.000313619
*RES
1 *1215:X *1047:B1 6.065 
*END

*D_NET *269 0.00105245
*CONN
*I *1036:B1 I *D sky130_fd_sc_hd__a21o_1
*I *1226:X O *D sky130_fd_sc_hd__dlygate4sd3_1
*CAP
1 *1036:B1 0.000253033
2 *1226:X 0.000253033
3 *1031:C1 *1036:B1 9.50342e-06
4 *1036:A1 *1036:B1 1.47256e-05
5 *1036:A2 *1036:B1 7.20191e-05
6 *251:6 *1036:B1 0.000387296
7 *252:23 *1036:B1 6.28388e-05
*RES
1 *1226:X *1036:B1 13.11 
*END

*D_NET *270 0.0103132
*CONN
*I *985:B2 I *D sky130_fd_sc_hd__a22o_1
*I *989:A1 I *D sky130_fd_sc_hd__mux2_1
*I *984:A2 I *D sky130_fd_sc_hd__o211a_1
*I *1261:X O *D sky130_fd_sc_hd__buf_1
*CAP
1 *985:B2 0.000334596
2 *989:A1 0
3 *984:A2 0.000292368
4 *1261:X 0.00225525
5 *270:18 0.000669002
6 *270:16 0.0014411
7 *270:10 0.00298512
8 *270:10 *1228:A 0
9 *270:18 *989:A0 0.000158066
10 *984:A1 *984:A2 4.89395e-05
11 *984:C1 *984:A2 3.5678e-06
12 *985:B1 *985:B2 0.000138106
13 *1087:A *270:18 3.00381e-05
14 *1136:RESET_B *985:B2 0.00033072
15 *1173:RESET_B *984:A2 0
16 *1177:CLK *270:18 5.82411e-05
17 *1177:D *270:18 4.38565e-05
18 *1177:RESET_B *270:16 0.000116416
19 *1177:RESET_B *270:18 4.66108e-05
20 *1209:A *270:10 5.6705e-05
21 *1257:A *270:10 0
22 *1259:A *270:10 8.7562e-05
23 *1269:A *270:10 5.04576e-06
24 *1269:A *270:16 8.79846e-05
25 *99:35 *270:16 0.000532328
26 *99:51 *270:10 0
27 *149:6 *985:B2 4.66108e-05
28 *154:21 *984:A2 0.000273596
29 *154:27 *984:A2 7.23602e-05
30 *256:638 *985:B2 2.92496e-05
31 *256:654 *985:B2 0.000169713
*RES
1 *1261:X *270:10 41.6025 
2 *270:10 *270:16 16.2425 
3 *270:16 *270:18 4.935 
4 *270:18 *984:A2 11.3 
5 *270:18 *989:A1 1.6 
6 *270:16 *985:B2 13.595 
*END

*D_NET *271 0.0004385
*CONN
*I *991:B1 I *D sky130_fd_sc_hd__a21o_1
*I *1237:X O *D sky130_fd_sc_hd__dlygate4sd3_1
*CAP
1 *991:B1 5.96768e-05
2 *1237:X 5.96768e-05
3 *991:B1 *991:A2 0.000115522
4 *991:B1 *281:6 4.40506e-05
5 *991:B1 *314:14 0.000159573
*RES
1 *1237:X *991:B1 5.72 
*END

*D_NET *272 0.000930362
*CONN
*I *1019:B1 I *D sky130_fd_sc_hd__a21o_1
*I *1246:X O *D sky130_fd_sc_hd__dlygate4sd3_1
*CAP
1 *1019:B1 0.000369514
2 *1246:X 0.000369514
3 *1019:A2 *1019:B1 5.53062e-06
4 *1036:A1 *1019:B1 2.72614e-05
5 *1053:A *1019:B1 0.000158543
*RES
1 *1246:X *1019:B1 8.96 
*END

*D_NET *273 0.000607679
*CONN
*I *1112:B1 I *D sky130_fd_sc_hd__o21ai_1
*I *1247:X O *D sky130_fd_sc_hd__dlygate4sd3_1
*CAP
1 *1112:B1 0.000171885
2 *1247:X 0.000171885
3 *134:12 *1112:B1 0.000236541
4 *256:702 *1112:B1 2.73688e-05
*RES
1 *1247:X *1112:B1 10.86 
*END

*D_NET *274 0.000446622
*CONN
*I *1114:B1 I *D sky130_fd_sc_hd__o21ai_1
*I *1248:X O *D sky130_fd_sc_hd__dlygate4sd3_1
*CAP
1 *1114:B1 0.000107855
2 *1248:X 0.000107855
3 *1114:B1 *936:B_N 0.00012398
4 *1115:B *1114:B1 3.40971e-05
5 *127:28 *1114:B1 7.28345e-05
*RES
1 *1248:X *1114:B1 9.825 
*END

*D_NET *275 0.00131598
*CONN
*I *1068:A1 I *D sky130_fd_sc_hd__mux2_1
*I *1039:A0 I *D sky130_fd_sc_hd__mux2_1
*I *1249:X O *D sky130_fd_sc_hd__dlygate4sd3_1
*CAP
1 *1068:A1 0
2 *1039:A0 0.000141786
3 *1249:X 0.000212713
4 *275:14 0.000354498
5 *1039:A0 *1022:A1 4.89395e-05
6 *1039:A0 *325:54 0.000195882
7 *275:14 *1068:A0 0.000272283
8 *275:14 *1069:A 3.89366e-05
9 *1068:S *1039:A0 2.88357e-05
10 *1068:S *275:14 2.21074e-05
*RES
1 *1249:X *275:14 9.695 
2 *275:14 *1039:A0 4.465 
3 *275:14 *1068:A1 1.6 
*END

*D_NET *276 0.000423847
*CONN
*I *1069:A I *D sky130_fd_sc_hd__clkbuf_1
*I *1250:X O *D sky130_fd_sc_hd__dlygate4sd3_1
*CAP
1 *1069:A 0.00012917
2 *1250:X 0.00012917
3 *1069:A *1249:A 0.00012657
4 *275:14 *1069:A 3.89366e-05
*RES
1 *1250:X *1069:A 9.825 
*END

*D_NET *277 0.00140972
*CONN
*I *1070:A1 I *D sky130_fd_sc_hd__mux2_1
*I *1041:A0 I *D sky130_fd_sc_hd__mux2_1
*I *1205:X O *D sky130_fd_sc_hd__dlygate4sd3_1
*CAP
1 *1070:A1 0.000193601
2 *1041:A0 0.00026456
3 *1205:X 0
4 *277:4 0.00045816
5 *1041:A0 *1041:A1 0.000188322
6 *1070:A1 *1022:A1 2.66935e-05
7 *1070:S *1070:A1 2.96334e-05
8 *1154:RESET_B *1070:A1 0.000122337
9 *1167:CLK *1041:A0 3.58128e-05
10 *256:286 *1041:A0 9.06015e-05
11 *256:292 *1041:A0 0
12 *256:292 *1070:A1 0
*RES
1 *1205:X *277:4 1.6 
2 *277:4 *1041:A0 6.205 
3 *277:4 *1070:A1 8.3 
*END

*D_NET *278 0.00195743
*CONN
*I *1066:A1 I *D sky130_fd_sc_hd__mux2_1
*I *1037:A0 I *D sky130_fd_sc_hd__mux2_1
*I *1206:X O *D sky130_fd_sc_hd__dlygate4sd3_1
*CAP
1 *1066:A1 0.000235812
2 *1037:A0 5.82181e-05
3 *1206:X 0.000433785
4 *278:8 0.000727815
5 *278:8 *1206:A 2.01737e-05
6 *1066:S *1066:A1 4.89395e-05
7 *1067:A *278:8 5.09431e-05
8 *1167:CLK *1066:A1 0.00013073
9 *256:286 *1066:A1 5.94962e-05
10 *256:461 *1066:A1 0.000191521
*RES
1 *1206:X *278:8 8.535 
2 *278:8 *1037:A0 4.47 
3 *278:8 *1066:A1 9.135 
*END

*D_NET *279 0.00101221
*CONN
*I *1076:A1 I *D sky130_fd_sc_hd__mux2_1
*I *1024:A0 I *D sky130_fd_sc_hd__mux2_1
*I *1207:X O *D sky130_fd_sc_hd__dlygate4sd3_1
*CAP
1 *1076:A1 0
2 *1024:A0 0.000176702
3 *1207:X 4.66526e-05
4 *279:6 0.000223355
5 *1024:A0 *1076:A0 0.000141599
6 *1024:A0 *1207:A 4.99619e-05
7 *1024:A0 *303:30 0.000127594
8 *1076:S *279:6 8.57024e-05
9 *1088:A1 *279:6 0.000160641
*RES
1 *1207:X *279:6 3.085 
2 *279:6 *1024:A0 9.725 
3 *279:6 *1076:A1 1.6 
*END

*D_NET *280 0.000821999
*CONN
*I *1077:A I *D sky130_fd_sc_hd__clkbuf_1
*I *1208:X O *D sky130_fd_sc_hd__dlygate4sd3_1
*CAP
1 *1077:A 0.000325702
2 *1208:X 0.000325702
3 *1077:A *319:10 0
4 *1172:CLK *1077:A 4.82863e-05
5 *1178:CLK *1077:A 4.59805e-05
6 *30:34 *1077:A 0
7 *30:47 *1077:A 7.63282e-05
*RES
1 *1208:X *1077:A 12.465 
*END

*D_NET *281 0.00296996
*CONN
*I *985:A2 I *D sky130_fd_sc_hd__a22o_1
*I *986:A2 I *D sky130_fd_sc_hd__o221a_2
*I *991:A2 I *D sky130_fd_sc_hd__a21o_1
*I *1262:X O *D sky130_fd_sc_hd__buf_1
*CAP
1 *985:A2 2.64839e-05
2 *986:A2 0.000272955
3 *991:A2 0.000243591
4 *1262:X 0.000300738
5 *281:29 0.000637244
6 *281:6 0.000882134
7 *991:A2 *314:14 1.61576e-05
8 *281:6 *314:14 0.00010659
9 *281:29 *981:A 0
10 *281:29 *1237:A 0
11 *985:B1 *281:29 2.97746e-05
12 *986:A1 *985:A2 4.77719e-05
13 *986:A1 *986:A2 3.36583e-05
14 *986:B2 *986:A2 0.000108212
15 *986:C1 *281:29 0
16 *987:S *986:A2 3.5678e-06
17 *991:B1 *991:A2 0.000115522
18 *991:B1 *281:6 4.40506e-05
19 *1136:D *281:29 0
20 *1136:RESET_B *281:29 4.95592e-05
21 *93:265 *991:A2 5.19528e-05
*RES
1 *1262:X *281:6 5.5 
2 *281:6 *991:A2 5.29 
3 *281:6 *281:29 9.505 
4 *281:29 *986:A2 5.905 
5 *281:29 *985:A2 2.41 
*END

*D_NET *282 0.0005846
*CONN
*I *1084:A0 I *D sky130_fd_sc_hd__mux2_1
*I *1209:X O *D sky130_fd_sc_hd__dlygate4sd3_1
*CAP
1 *1084:A0 0.000201863
2 *1209:X 0.000201863
3 *940:B *1084:A0 4.89558e-05
4 *99:35 *1084:A0 0.000131917
*RES
1 *1209:X *1084:A0 10.905 
*END

*D_NET *283 0.000530837
*CONN
*I *1088:A0 I *D sky130_fd_sc_hd__mux2_1
*I *1210:X O *D sky130_fd_sc_hd__dlygate4sd3_1
*CAP
1 *1088:A0 0.000174203
2 *1210:X 0.000174203
3 *1088:A0 *319:10 8.69906e-05
4 *1178:D *1088:A0 9.54399e-05
5 *30:47 *1088:A0 0
*RES
1 *1210:X *1088:A0 10.56 
*END

*D_NET *284 0.00149105
*CONN
*I *1072:A1 I *D sky130_fd_sc_hd__mux2_1
*I *1020:A0 I *D sky130_fd_sc_hd__mux2_1
*I *1211:X O *D sky130_fd_sc_hd__dlygate4sd3_1
*CAP
1 *1072:A1 0.000106899
2 *1020:A0 0.000326467
3 *1211:X 0
4 *284:4 0.000433365
5 *1088:A1 *1020:A0 0.000124895
6 *93:219 *1072:A1 3.6227e-05
7 *102:30 *1020:A0 0.00038879
8 *102:30 *1072:A1 7.44125e-05
*RES
1 *1211:X *284:4 1.6 
2 *284:4 *1020:A0 6.19 
3 *284:4 *1072:A1 7.265 
*END

*D_NET *285 0.000765356
*CONN
*I *1070:A0 I *D sky130_fd_sc_hd__mux2_1
*I *1212:X O *D sky130_fd_sc_hd__dlygate4sd3_1
*CAP
1 *1070:A0 0.000216902
2 *1212:X 0.000216902
3 *1070:A0 *303:30 1.24244e-05
4 *1070:S *1070:A0 0.000160635
5 *1154:RESET_B *1070:A0 0.000129705
6 *126:69 *1070:A0 2.87867e-05
*RES
1 *1212:X *1070:A0 11.67 
*END

*D_NET *286 0.000406967
*CONN
*I *1097:A0 I *D sky130_fd_sc_hd__mux2_1
*I *1213:X O *D sky130_fd_sc_hd__dlygate4sd3_1
*CAP
1 *1097:A0 0.000136205
2 *1213:X 0.000136205
3 *1097:A0 *319:10 0.000134557
*RES
1 *1213:X *1097:A0 10.11 
*END

*D_NET *287 0.00112475
*CONN
*I *1062:A1 I *D sky130_fd_sc_hd__mux2_1
*I *1050:A0 I *D sky130_fd_sc_hd__mux2_1
*I *1214:X O *D sky130_fd_sc_hd__dlygate4sd3_1
*CAP
1 *1062:A1 0.00024216
2 *1050:A0 0.000146151
3 *1214:X 0
4 *287:4 0.00038831
5 *1050:A0 *1050:A1 9.19395e-05
6 *1062:A1 *1050:A1 2.20728e-05
7 *1062:A1 *1062:A0 4.77719e-05
8 *1062:A1 *1214:A 3.72081e-05
9 *93:122 *1062:A1 0.000122287
10 *126:22 *1062:A1 2.68464e-05
*RES
1 *1214:X *287:4 1.6 
2 *287:4 *1050:A0 3.43 
3 *287:4 *1062:A1 10.43 
*END

*D_NET *288 0.000512259
*CONN
*I *1086:A0 I *D sky130_fd_sc_hd__mux2_1
*I *1216:X O *D sky130_fd_sc_hd__dlygate4sd3_1
*CAP
1 *1086:A0 0.000194341
2 *1216:X 0.000194341
3 *99:22 *1086:A0 2.86975e-05
4 *99:35 *1086:A0 9.4879e-05
*RES
1 *1216:X *1086:A0 9.9 
*END

*D_NET *289 0.00157212
*CONN
*I *1056:A1 I *D sky130_fd_sc_hd__mux2_1
*I *977:A0 I *D sky130_fd_sc_hd__mux2_1
*I *1217:X O *D sky130_fd_sc_hd__dlygate4sd3_1
*CAP
1 *1056:A1 9.82367e-05
2 *977:A0 0.00019192
3 *1217:X 0
4 *289:6 0.000290156
5 *977:A0 *977:A1 3.00381e-05
6 *977:A0 *1003:A1 9.63357e-05
7 *977:A0 *1005:A1 8.65525e-05
8 *1056:A1 *1003:A1 4.88778e-05
9 *1056:A1 *1005:A1 4.51189e-05
10 *1056:A1 *1056:A0 0.00019608
11 *1054:S *1056:A1 0.00015856
12 *1131:D *977:A0 0.000164686
13 *126:161 *1056:A1 4.89395e-05
14 *256:36 *977:A0 0.000116621
*RES
1 *1217:X *289:6 3.6 
2 *289:6 *977:A0 9 
3 *289:6 *1056:A1 7.065 
*END

*D_NET *290 0.00105038
*CONN
*I *1056:A0 I *D sky130_fd_sc_hd__mux2_1
*I *1218:X O *D sky130_fd_sc_hd__dlygate4sd3_1
*CAP
1 *1056:A0 0.000192424
2 *1218:X 0.000192424
3 *1056:A0 *1054:A0 0.000197843
4 *1056:A0 *1054:A1 0.000122812
5 *1054:S *1056:A0 7.77471e-05
6 *1055:A *1056:A0 4.89395e-05
7 *1056:A1 *1056:A0 0.00019608
8 *126:161 *1056:A0 2.21074e-05
*RES
1 *1218:X *1056:A0 8.135 
*END

*D_NET *291 0.00172386
*CONN
*I *1064:A1 I *D sky130_fd_sc_hd__mux2_1
*I *1052:A0 I *D sky130_fd_sc_hd__mux2_1
*I *1219:X O *D sky130_fd_sc_hd__dlygate4sd3_1
*CAP
1 *1064:A1 0.000268338
2 *1052:A0 0.000132013
3 *1219:X 0.000107032
4 *291:6 0.000507384
5 *1052:A0 *1219:A 3.03989e-05
6 *1052:A0 *326:36 0.000390035
7 *1064:A1 *1219:A 3.89366e-05
8 *291:6 *326:36 8.13307e-05
9 *1065:A *1064:A1 0
10 *126:32 *1064:A1 9.50342e-06
11 *256:171 *1064:A1 0.000110087
12 *256:175 *1064:A1 4.87965e-05
*RES
1 *1219:X *291:6 3.085 
2 *291:6 *1052:A0 5.335 
3 *291:6 *1064:A1 11.06 
*END

*D_NET *292 0.000986832
*CONN
*I *995:B1 I *D sky130_fd_sc_hd__o211a_1
*I *998:A1 I *D sky130_fd_sc_hd__mux2_1
*I *1263:X O *D sky130_fd_sc_hd__clkbuf_1
*CAP
1 *995:B1 5.54801e-05
2 *998:A1 3.39721e-05
3 *1263:X 0.000177818
4 *292:10 0.00026727
5 *995:B1 *995:A2 3.12916e-05
6 *995:B1 *998:A0 1.07593e-05
7 *995:B1 *303:47 1.08758e-05
8 *998:A1 *998:A0 0.000122817
9 *292:10 *998:A0 9.16466e-05
10 *995:C1 *995:B1 8.74247e-05
11 *998:S *995:B1 4.07329e-05
12 *998:S *998:A1 1.54665e-05
13 *162:6 *995:B1 4.12775e-05
14 *245:40 *292:10 0
*RES
1 *1263:X *292:10 8.765 
2 *292:10 *998:A1 2.74 
3 *292:10 *995:B1 3.715 
*END

*D_NET *293 0.00188587
*CONN
*I *1058:A1 I *D sky130_fd_sc_hd__mux2_1
*I *979:A0 I *D sky130_fd_sc_hd__mux2_1
*I *1220:X O *D sky130_fd_sc_hd__dlygate4sd3_1
*CAP
1 *1058:A1 0.00028872
2 *979:A0 0.000210555
3 *1220:X 0
4 *293:6 0.000499275
5 *979:A0 *1007:A1 3.83041e-05
6 *979:A0 *325:97 0
7 *979:A0 *326:115 4.82919e-05
8 *1058:A1 *1058:A0 0.000159747
9 *1058:A1 *1224:A 0.000108761
10 *1058:A1 *325:97 0
11 *979:S *979:A0 0.000198939
12 *1273:A *979:A0 0.000140852
13 *1273:A *1058:A1 3.31204e-05
14 *242:86 *979:A0 0.000159305
*RES
1 *1220:X *293:6 3.6 
2 *293:6 *979:A0 9.375 
3 *293:6 *1058:A1 7.68 
*END

*D_NET *294 0.00158121
*CONN
*I *1082:A1 I *D sky130_fd_sc_hd__mux2_1
*I *1007:A0 I *D sky130_fd_sc_hd__mux2_1
*I *1221:X O *D sky130_fd_sc_hd__dlygate4sd3_1
*CAP
1 *1082:A1 0
2 *1007:A0 0.000131829
3 *1221:X 0.000138173
4 *294:14 0.000270002
5 *1007:A0 *1007:A1 4.89395e-05
6 *294:14 *1003:A1 2.04875e-05
7 *1006:A *294:14 3.39432e-05
8 *1007:S *1007:A0 0.000232985
9 *1082:S *294:14 2.98644e-05
10 *1141:D *294:14 8.46682e-05
11 *1176:CLK *294:14 2.49909e-05
12 *113:8 *1007:A0 0.000492686
13 *113:8 *294:14 7.26398e-05
*RES
1 *1221:X *294:14 8.48 
2 *294:14 *1007:A0 6.19 
3 *294:14 *1082:A1 1.6 
*END

*D_NET *295 0.00178454
*CONN
*I *1062:A0 I *D sky130_fd_sc_hd__mux2_1
*I *1222:X O *D sky130_fd_sc_hd__dlygate4sd3_1
*CAP
1 *1062:A0 0.000473952
2 *1222:X 0.000473952
3 *1062:A0 *1222:A 0.000108031
4 *1062:A0 *325:54 0.0001992
5 *1062:A0 *368:8 7.23533e-05
6 *1062:A1 *1062:A0 4.77719e-05
7 *1120:A *1062:A0 0.000185411
8 *93:122 *1062:A0 0.00016219
9 *126:14 *1062:A0 3.21772e-05
10 *126:22 *1062:A0 2.95026e-05
11 *253:72 *1062:A0 0
*RES
1 *1222:X *1062:A0 16.155 
*END

*D_NET *296 0.00214845
*CONN
*I *1074:A1 I *D sky130_fd_sc_hd__mux2_1
*I *1022:A0 I *D sky130_fd_sc_hd__mux2_1
*I *1223:X O *D sky130_fd_sc_hd__dlygate4sd3_1
*CAP
1 *1074:A1 8.5679e-05
2 *1022:A0 0.000351242
3 *1223:X 0.000258091
4 *296:10 0.000695012
5 *296:10 *1223:A 2.88357e-05
6 *1200:A *1022:A0 0.000215135
7 *245:10 *1074:A1 4.7701e-05
8 *256:337 *296:10 0.000156284
9 *256:344 *1074:A1 0.000217991
10 *256:344 *296:10 9.24825e-05
*RES
1 *1223:X *296:10 7.995 
2 *296:10 *1022:A0 7.845 
3 *296:10 *1074:A1 6.255 
*END

*D_NET *297 0.000453914
*CONN
*I *1058:A0 I *D sky130_fd_sc_hd__mux2_1
*I *1224:X O *D sky130_fd_sc_hd__dlygate4sd3_1
*CAP
1 *1058:A0 4.80579e-05
2 *1224:X 4.80579e-05
3 *1058:A0 *1224:A 0.000198051
4 *1058:A1 *1058:A0 0.000159747
*RES
1 *1224:X *1058:A0 5.03 
*END

*D_NET *298 0.00146491
*CONN
*I *1064:A0 I *D sky130_fd_sc_hd__mux2_1
*I *1225:X O *D sky130_fd_sc_hd__dlygate4sd3_1
*CAP
1 *1064:A0 0.000433625
2 *1225:X 0.000433625
3 *1064:A0 *369:8 7.23602e-05
4 *93:100 *1064:A0 6.38722e-05
5 *256:169 *1064:A0 0.00046143
*RES
1 *1225:X *1064:A0 13.35 
*END

*D_NET *299 0.00156762
*CONN
*I *1005:A0 I *D sky130_fd_sc_hd__mux2_1
*I *1080:A1 I *D sky130_fd_sc_hd__mux2_1
*I *1227:X O *D sky130_fd_sc_hd__dlygate4sd3_1
*CAP
1 *1005:A0 0.000220101
2 *1080:A1 0.000412004
3 *1227:X 0
4 *299:4 0.000632105
5 *1080:A1 *1003:A1 0
6 *1006:A *1080:A1 0.000196471
7 *1081:A *1080:A1 5.80021e-05
8 *1175:RESET_B *1080:A1 4.89395e-05
9 *1176:D *1080:A1 0
10 *256:628 *1080:A1 0
*RES
1 *1227:X *299:4 1.6 
2 *299:4 *1080:A1 13.55 
3 *299:4 *1005:A0 4.825 
*END

*D_NET *300 0.00166405
*CONN
*I *975:A0 I *D sky130_fd_sc_hd__mux2_1
*I *1054:A1 I *D sky130_fd_sc_hd__mux2_1
*I *1228:X O *D sky130_fd_sc_hd__dlygate4sd3_1
*CAP
1 *975:A0 0
2 *1054:A1 0.000434808
3 *1228:X 0.000137981
4 *300:6 0.000572789
5 *1054:A1 *975:A1 4.89295e-05
6 *1054:A1 *1003:A1 1.14169e-05
7 *1054:A1 *1217:A 0.000114649
8 *300:6 *975:A1 3.75126e-05
9 *975:S *1054:A1 4.77757e-05
10 *975:S *300:6 8.64421e-05
11 *1054:S *1054:A1 4.89395e-05
12 *1056:A0 *1054:A1 0.000122812
*RES
1 *1228:X *300:6 4.12 
2 *300:6 *1054:A1 13.67 
3 *300:6 *975:A0 1.6 
*END

*D_NET *301 0.00232825
*CONN
*I *1060:A1 I *D sky130_fd_sc_hd__mux2_1
*I *1048:A0 I *D sky130_fd_sc_hd__mux2_1
*I *1229:X O *D sky130_fd_sc_hd__dlygate4sd3_1
*CAP
1 *1060:A1 0.000368012
2 *1048:A0 0.000356847
3 *1229:X 0
4 *301:4 0.000724859
5 *1048:A0 *920:C 5.71123e-05
6 *1048:A0 *1048:A1 0.000107886
7 *1048:A0 *1229:A 0
8 *1048:A0 *324:34 8.38012e-05
9 *1048:A0 *326:36 9.48278e-05
10 *1060:A1 *1229:A 5.83121e-06
11 *1060:A1 *324:26 4.14392e-05
12 *1060:S *1060:A1 7.15381e-05
13 *1127:A *1048:A0 1.65287e-05
14 *1127:B *1048:A0 6.54361e-06
15 *1127:B *1060:A1 0.00019545
16 *1193:D *1048:A0 8.49205e-05
17 *1199:A *1060:A1 0
18 *93:133 *1060:A1 6.12027e-05
19 *253:72 *1060:A1 5.14556e-05
*RES
1 *1229:X *301:4 1.6 
2 *301:4 *1048:A0 12.53 
3 *301:4 *1060:A1 12.545 
*END

*D_NET *302 0.00162693
*CONN
*I *1078:A1 I *D sky130_fd_sc_hd__mux2_1
*I *1003:A0 I *D sky130_fd_sc_hd__mux2_1
*I *1230:X O *D sky130_fd_sc_hd__dlygate4sd3_1
*CAP
1 *1078:A1 0.000429184
2 *1003:A0 0
3 *1230:X 0.000166762
4 *302:6 0.000595946
5 *1078:A1 *941:A 0
6 *1003:S *1078:A1 4.00541e-06
7 *1003:S *302:6 2.30292e-05
8 *1004:A *1078:A1 0.000162311
9 *1140:D *1078:A1 6.52265e-05
10 *126:228 *1078:A1 0
11 *126:242 *1078:A1 9.50342e-06
12 *154:33 *1078:A1 0.0001249
13 *154:33 *302:6 4.60584e-05
*RES
1 *1230:X *302:6 4.465 
2 *302:6 *1003:A0 1.6 
3 *302:6 *1078:A1 13.58 
*END

*D_NET *303 0.0084096
*CONN
*I *996:B2 I *D sky130_fd_sc_hd__a22o_1
*I *995:A2 I *D sky130_fd_sc_hd__o211a_1
*I *1000:A1 I *D sky130_fd_sc_hd__mux2_1
*I *1264:X O *D sky130_fd_sc_hd__buf_1
*CAP
1 *996:B2 0.000446838
2 *995:A2 1.99576e-05
3 *1000:A1 0
4 *1264:X 0.00189855
5 *303:47 0.000676697
6 *303:30 0.00210845
7 *996:B2 *993:A 2.68111e-05
8 *996:B2 *994:A 4.2815e-05
9 *996:B2 *998:A0 0
10 *996:B2 *1239:A 0.000109346
11 *303:30 *1000:A0 1.32102e-05
12 *303:30 *1022:A1 4.73108e-05
13 *303:30 *1024:A1 0.00072365
14 *303:47 *1000:A0 9.03002e-05
15 *995:A1 *995:A2 3.12916e-05
16 *995:A1 *996:B2 8.52972e-05
17 *995:B1 *995:A2 3.12916e-05
18 *995:B1 *303:47 1.08758e-05
19 *995:C1 *996:B2 3.73332e-05
20 *995:C1 *303:47 1.19928e-05
21 *996:A1 *996:B2 0.000163204
22 *1022:S *303:30 6.41142e-05
23 *1024:A0 *303:30 0.000127594
24 *1070:A0 *303:30 1.24244e-05
25 *1071:A *303:30 0.000123955
26 *1137:RESET_B *996:B2 7.17885e-05
27 *1137:RESET_B *303:47 0.00014791
28 *1154:CLK *303:30 0.000253946
29 *1154:RESET_B *303:30 0.000135081
30 *1200:A *303:30 4.16007e-05
31 *1208:A *303:30 4.70343e-05
32 *162:6 *996:B2 0.000111946
33 *162:6 *303:47 4.66108e-05
34 *162:23 *303:47 0.000156823
35 *162:25 *303:30 0.000126849
36 *162:27 *303:30 0.00014714
37 *244:44 *303:30 6.26429e-05
38 *245:25 *303:30 0
39 *256:377 *303:47 0.000156916
*RES
1 *1264:X *303:30 40.2461 
2 *303:30 *1000:A1 1.6 
3 *303:30 *303:47 9.97 
4 *303:47 *995:A2 2.215 
5 *303:47 *996:B2 15.2 
*END

*D_NET *304 0.000363434
*CONN
*I *1078:A0 I *D sky130_fd_sc_hd__mux2_1
*I *1231:X O *D sky130_fd_sc_hd__dlygate4sd3_1
*CAP
1 *1078:A0 8.8457e-05
2 *1231:X 8.8457e-05
3 *1078:A0 *1231:A 4.99619e-05
4 *126:228 *1078:A0 8.8266e-05
5 *126:242 *1078:A0 4.82919e-05
*RES
1 *1231:X *1078:A0 5.03 
*END

*D_NET *305 0.00043883
*CONN
*I *1080:A0 I *D sky130_fd_sc_hd__mux2_1
*I *1232:X O *D sky130_fd_sc_hd__dlygate4sd3_1
*CAP
1 *1080:A0 0.000101739
2 *1232:X 0.000101739
3 *1175:RESET_B *1080:A0 0.000235351
*RES
1 *1232:X *1080:A0 5.375 
*END

*D_NET *306 0.000473951
*CONN
*I *1125:B I *D sky130_fd_sc_hd__xor2_1
*I *1233:X O *D sky130_fd_sc_hd__dlygate4sd3_1
*CAP
1 *1125:B 0.000170655
2 *1233:X 0.000170655
3 *1125:B *326:115 4.23341e-05
4 *126:144 *1125:B 9.03066e-05
*RES
1 *1233:X *1125:B 10.41 
*END

*D_NET *307 0.00142499
*CONN
*I *1092:A0 I *D sky130_fd_sc_hd__mux2_1
*I *1234:X O *D sky130_fd_sc_hd__dlygate4sd3_1
*CAP
1 *1092:A0 0.000381299
2 *1234:X 0.000381299
3 *1092:A0 *314:14 1.60203e-05
4 *1092:A0 *314:22 8.40269e-05
5 *1139:D *1092:A0 2.67022e-05
6 *93:232 *1092:A0 0.000140946
7 *93:265 *1092:A0 0.000394699
8 *253:40 *1092:A0 0
*RES
1 *1234:X *1092:A0 13.425 
*END

*D_NET *308 0.00135356
*CONN
*I *1015:A0 I *D sky130_fd_sc_hd__mux2_1
*I *1235:X O *D sky130_fd_sc_hd__dlygate4sd3_1
*CAP
1 *1015:A0 0.000378357
2 *1235:X 0.000378357
3 *1015:A0 *1011:A 4.83032e-05
4 *1015:A0 *1235:A 0.000122801
5 *1018:A *1015:A0 1.90762e-05
6 *1040:A *1015:A0 0.000122801
7 *1153:CLK *1015:A0 0.000271873
8 *173:23 *1015:A0 1.19928e-05
*RES
1 *1235:X *1015:A0 13.275 
*END

*D_NET *309 0.000737855
*CONN
*I *1043:A0 I *D sky130_fd_sc_hd__mux2_1
*I *1236:X O *D sky130_fd_sc_hd__dlygate4sd3_1
*CAP
1 *1043:A0 0.00026814
2 *1236:X 0.00026814
3 *1043:A0 *326:115 3.89366e-05
4 *1043:A0 *351:6 2.49909e-05
5 *1043:S *1043:A0 2.08971e-05
6 *1155:RESET_B *1043:A0 1.51374e-05
7 *1157:RESET_B *1043:A0 7.03219e-05
8 *253:72 *1043:A0 3.12916e-05
*RES
1 *1236:X *1043:A0 11.115 
*END

*D_NET *310 0.000289165
*CONN
*I *1095:A0 I *D sky130_fd_sc_hd__mux2_1
*I *1238:X O *D sky130_fd_sc_hd__dlygate4sd3_1
*CAP
1 *1095:A0 0.000106348
2 *1238:X 0.000106348
3 *1095:A1 *1095:A0 2.86975e-05
4 *1095:S *1095:A0 4.77719e-05
*RES
1 *1238:X *1095:A0 5.03 
*END

*D_NET *311 0.00112894
*CONN
*I *998:A0 I *D sky130_fd_sc_hd__mux2_1
*I *1239:X O *D sky130_fd_sc_hd__dlygate4sd3_1
*CAP
1 *998:A0 0.000352984
2 *1239:X 0.000352984
3 *995:B1 *998:A0 1.07593e-05
4 *995:C1 *998:A0 8.64599e-05
5 *996:B2 *998:A0 0
6 *998:A1 *998:A0 0.000122817
7 *1137:RESET_B *998:A0 0.000111293
8 *292:10 *998:A0 9.16466e-05
*RES
1 *1239:X *998:A0 12.63 
*END

*D_NET *312 0.00100281
*CONN
*I *987:A0 I *D sky130_fd_sc_hd__mux2_1
*I *1240:X O *D sky130_fd_sc_hd__dlygate4sd3_1
*CAP
1 *987:A0 0.000366251
2 *1240:X 0.000366251
3 *987:A0 *1240:A 0
4 *984:B1 *987:A0 3.56402e-05
5 *986:C1 *987:A0 0
6 *987:A1 *987:A0 0.000101046
7 *259:14 *987:A0 0.000133623
*RES
1 *1240:X *987:A0 12.975 
*END

*D_NET *313 0.000625359
*CONN
*I *1032:A0 I *D sky130_fd_sc_hd__mux2_1
*I *1241:X O *D sky130_fd_sc_hd__dlygate4sd3_1
*CAP
1 *1032:A0 0.000157377
2 *1241:X 0.000157377
3 *1032:A1 *1032:A0 5.92269e-05
4 *1158:CLK *1032:A0 0.000122325
5 *184:20 *1032:A0 4.92062e-05
6 *184:32 *1032:A0 3.09164e-05
7 *250:14 *1032:A0 4.89295e-05
*RES
1 *1241:X *1032:A0 10.425 
*END

*D_NET *314 0.00821196
*CONN
*I *1002:A2 I *D sky130_fd_sc_hd__a21o_1
*I *996:A2 I *D sky130_fd_sc_hd__a22o_1
*I *997:A2 I *D sky130_fd_sc_hd__o221a_2
*I *1265:X O *D sky130_fd_sc_hd__buf_1
*CAP
1 *1002:A2 2.08101e-05
2 *996:A2 0
3 *997:A2 0.000152694
4 *1265:X 0.00146248
5 *314:22 0.000588795
6 *314:14 0.00191939
7 *997:A2 *1204:A 2.03321e-05
8 *314:22 *1204:A 0.000160314
9 o_index[0] *314:14 1.47347e-05
10 *991:A2 *314:14 1.61576e-05
11 *991:B1 *314:14 0.000159573
12 *996:B1 *997:A2 7.65603e-05
13 *997:B2 *997:A2 0.000132084
14 *1002:B1 *314:22 7.54285e-05
15 *1092:A0 *314:14 1.60203e-05
16 *1092:A0 *314:22 8.40269e-05
17 *1136:D *314:14 8.4841e-05
18 *1170:RESET_B *997:A2 8.44308e-05
19 *1234:A *314:14 0.000164874
20 *1256:A *314:22 6.77046e-05
21 *1260:A *314:14 4.99619e-05
22 *1262:A *314:14 4.99619e-05
23 *1265:A *314:14 1.61831e-05
24 *93:219 *997:A2 3.75882e-06
25 *93:265 *314:14 0.00245942
26 *253:40 *314:22 0.000160691
27 *259:14 *314:14 2.75145e-05
28 *261:12 *314:14 3.66286e-05
29 *281:6 *314:14 0.00010659
*RES
1 *1265:X *314:14 34.285 
2 *314:14 *314:22 8.085 
3 *314:22 *997:A2 9.785 
4 *314:22 *996:A2 1.6 
5 *314:14 *1002:A2 1.96 
*END

*D_NET *315 0.000910694
*CONN
*I *1000:A0 I *D sky130_fd_sc_hd__mux2_1
*I *1242:X O *D sky130_fd_sc_hd__dlygate4sd3_1
*CAP
1 *1000:A0 0.000403592
2 *1242:X 0.000403592
3 *303:30 *1000:A0 1.32102e-05
4 *303:47 *1000:A0 9.03002e-05
*RES
1 *1242:X *1000:A0 11.97 
*END

*D_NET *316 0.000736361
*CONN
*I *1017:A0 I *D sky130_fd_sc_hd__mux2_1
*I *1243:X O *D sky130_fd_sc_hd__dlygate4sd3_1
*CAP
1 *1017:A0 0.000151066
2 *1243:X 0.000151066
3 *1017:A0 *1011:A 0.000134772
4 *1017:A0 *1012:B1 0.000160211
5 *1017:A0 *1017:A1 0.000139245
*RES
1 *1243:X *1017:A0 10.32 
*END

*D_NET *317 0.000397808
*CONN
*I *1045:A0 I *D sky130_fd_sc_hd__mux2_1
*I *1244:X O *D sky130_fd_sc_hd__dlygate4sd3_1
*CAP
1 *1045:A0 0.000173433
2 *1244:X 0.000173433
3 *1045:A1 *1045:A0 5.09431e-05
*RES
1 *1244:X *1045:A0 5.72 
*END

*D_NET *318 0.000728273
*CONN
*I *989:A0 I *D sky130_fd_sc_hd__mux2_1
*I *1245:X O *D sky130_fd_sc_hd__dlygate4sd3_1
*CAP
1 *989:A0 0.000134068
2 *1245:X 0.000134068
3 *1087:A *989:A0 5.31772e-05
4 *1136:CLK *989:A0 6.37837e-05
5 *1140:CLK *989:A0 1.52184e-05
6 *1177:CLK *989:A0 4.47209e-05
7 *247:62 *989:A0 0.000125172
8 *270:18 *989:A0 0.000158066
*RES
1 *1245:X *989:A0 11.025 
*END

*D_NET *319 0.00808568
*CONN
*I *1015:A1 I *D sky130_fd_sc_hd__mux2_1
*I *1012:B1 I *D sky130_fd_sc_hd__o211a_1
*I *1266:X O *D sky130_fd_sc_hd__buf_1
*CAP
1 *1015:A1 0
2 *1012:B1 0.000442469
3 *1266:X 0.00206753
4 *319:10 0.00251
5 *1012:B1 *1011:A 0
6 *1012:B1 *1012:A2 9.50342e-06
7 *1012:B1 *326:53 0.000111088
8 *1012:B1 *340:6 0.000382634
9 *1014:C1 *1012:B1 3.60024e-06
10 *1017:A0 *1012:B1 0.000160211
11 *1071:A *319:10 0
12 *1077:A *319:10 0
13 *1088:A0 *319:10 8.69906e-05
14 *1097:A0 *319:10 0.000134557
15 *1137:D *319:10 0
16 *1143:RESET_B *1012:B1 0.000187071
17 *1143:RESET_B *319:10 8.17641e-05
18 *1148:D *319:10 6.48889e-05
19 *1153:CLK *1012:B1 1.89685e-05
20 *1153:CLK *319:10 8.41419e-05
21 *1154:D *319:10 0
22 *1169:CLK *319:10 8.53177e-05
23 *1169:D *319:10 0
24 *1178:D *319:10 0.000164686
25 *1182:RESET_B *319:10 0
26 *30:34 *319:10 0.00101079
27 *173:16 *1012:B1 8.51808e-05
28 *241:12 *319:10 0.00018258
29 *241:38 *319:10 0.000211711
30 *256:405 *319:10 0
*RES
1 *1266:X *319:10 45.66 
2 *319:10 *1012:B1 17.425 
3 *319:10 *1015:A1 3.6 
*END

*D_NET *320 0.00756338
*CONN
*I *1012:A2 I *D sky130_fd_sc_hd__o211a_1
*I *1017:A1 I *D sky130_fd_sc_hd__mux2_1
*I *1013:B2 I *D sky130_fd_sc_hd__a22o_1
*I *1267:X O *D sky130_fd_sc_hd__buf_1
*CAP
1 *1012:A2 0.000105267
2 *1017:A1 0.00032125
3 *1013:B2 8.61477e-06
4 *1267:X 0.00177939
5 *320:30 0.000499824
6 *320:22 0.00205461
7 *1012:A2 *326:53 0.000216975
8 *1013:B2 *1009:A 4.89295e-05
9 *1017:A1 *1011:A 3.24326e-05
10 *320:22 *1034:A0 5.33142e-05
11 *320:22 *326:53 0.00026952
12 *320:30 *1009:A 7.50252e-05
13 *1012:B1 *1012:A2 9.50342e-06
14 *1012:C1 *1017:A1 4.05358e-05
15 *1013:A1 *1013:B2 4.77719e-05
16 *1013:A1 *320:30 4.77757e-05
17 *1014:A1 *1017:A1 0.00011099
18 *1014:A2 *1017:A1 4.76503e-05
19 *1014:A2 *320:30 0
20 *1014:B2 *1017:A1 0.000110492
21 *1014:C1 *1017:A1 2.68016e-05
22 *1017:A0 *1017:A1 0.000139245
23 *1031:C1 *320:22 0
24 *1034:A1 *320:22 0
25 *1035:A *320:22 7.03276e-05
26 *1150:RESET_B *320:22 0.000116516
27 *1267:A *320:22 7.4027e-05
28 *168:6 *320:30 3.6355e-05
29 *173:16 *1017:A1 0
30 *240:67 *320:22 0.000212664
31 *251:14 *320:22 0
32 *252:23 *320:22 0
33 *255:22 *320:22 0.00100757
34 *256:189 *1017:A1 0
*RES
1 *1267:X *320:22 41.5225 
2 *320:22 *320:30 4.5125 
3 *320:30 *1013:B2 2.05 
4 *320:30 *1017:A1 12.635 
5 *320:22 *1012:A2 6.1275 
*END

*D_NET *321 0.000233796
*CONN
*I *1230:A I *D sky130_fd_sc_hd__dlygate4sd3_1
*I *1140:Q O *D sky130_fd_sc_hd__dfrtp_1
*CAP
1 *1230:A 7.98843e-05
2 *1140:Q 7.98843e-05
3 *256:628 *1230:A 7.4027e-05
*RES
1 *1140:Q *1230:A 8.685 
*END

*D_NET *322 0.000246947
*CONN
*I *1227:A I *D sky130_fd_sc_hd__dlygate4sd3_1
*I *1141:Q O *D sky130_fd_sc_hd__dfrtp_1
*CAP
1 *1227:A 4.52826e-05
2 *1141:Q 4.52826e-05
3 *1085:A *1227:A 3.97493e-05
4 *256:628 *1227:A 0.000116633
*RES
1 *1141:Q *1227:A 8.58 
*END

*D_NET *323 7.31538e-05
*CONN
*I *1221:A I *D sky130_fd_sc_hd__dlygate4sd3_1
*I *1142:Q O *D sky130_fd_sc_hd__dfrtp_1
*CAP
1 *1221:A 2.3116e-05
2 *1142:Q 2.3116e-05
3 *246:83 *1221:A 2.69217e-05
*RES
1 *1142:Q *1221:A 3.65 
*END

*D_NET *324 0.0223454
*CONN
*I *975:A1 I *D sky130_fd_sc_hd__mux2_1
*I *1003:A1 I *D sky130_fd_sc_hd__mux2_1
*I *1233:A I *D sky130_fd_sc_hd__dlygate4sd3_1
*I *1126:A2 I *D sky130_fd_sc_hd__a21oi_1
*I *1020:A1 I *D sky130_fd_sc_hd__mux2_1
*I *1037:A1 I *D sky130_fd_sc_hd__mux2_1
*I *1048:A1 I *D sky130_fd_sc_hd__mux2_1
*I *920:C I *D sky130_fd_sc_hd__and3_1
*I *1192:Q O *D sky130_fd_sc_hd__dfrtp_4
*CAP
1 *975:A1 3.63321e-05
2 *1003:A1 0.00137533
3 *1233:A 3.6402e-05
4 *1126:A2 0
5 *1020:A1 0.00112219
6 *1037:A1 0.000240423
7 *1048:A1 0.000186788
8 *920:C 0.000278862
9 *1192:Q 6.68432e-05
10 *324:106 0.00174157
11 *324:70 0.00278418
12 *324:34 0.000601886
13 *324:32 0.00164369
14 *324:26 0.000765725
15 *324:18 0.00164629
16 *324:8 0.00132679
17 *920:C *1229:A 2.16104e-05
18 *1003:A1 *1005:A1 0.000553433
19 *1003:A1 *1217:A 4.23878e-05
20 *1020:A1 *937:B_N 4.91927e-05
21 *1020:A1 *1074:A0 0.000311655
22 *1048:A1 *920:B 4.77769e-05
23 *1233:A *325:97 3.12916e-05
24 *324:18 *970:A 6.72833e-06
25 *324:18 *325:97 0.000824469
26 *324:26 *325:8 0.000529996
27 *324:26 *325:97 1.08105e-05
28 *324:32 *325:8 6.59254e-05
29 *324:32 *325:12 0.000194914
30 *324:34 *920:B 0.000175219
31 *324:34 *325:14 9.05535e-05
32 *324:70 *325:14 2.02316e-05
33 *324:70 *325:54 0.00109524
34 *950:A *1020:A1 0
35 *972:A2 *324:18 0.000110639
36 *975:S *1003:A1 9.07315e-05
37 *976:A *324:106 2.87867e-05
38 *977:A0 *1003:A1 9.63357e-05
39 *1006:A *1003:A1 4.05102e-05
40 *1048:A0 *920:C 5.71123e-05
41 *1048:A0 *1048:A1 0.000107886
42 *1048:A0 *324:34 8.38012e-05
43 *1049:A *920:C 0
44 *1054:A1 *975:A1 4.89295e-05
45 *1054:A1 *1003:A1 1.14169e-05
46 *1055:A *1003:A1 0.000243815
47 *1056:A1 *1003:A1 4.88778e-05
48 *1060:A1 *324:26 4.14392e-05
49 *1060:S *324:70 0
50 *1067:A *1020:A1 2.59285e-05
51 *1075:A *1020:A1 0.000155903
52 *1080:A1 *1003:A1 0
53 *1082:S *1003:A1 0.000195326
54 *1117:A *1020:A1 0.000118527
55 *1120:A *324:70 8.41686e-05
56 *1127:A *1048:A1 4.77769e-05
57 *1131:D *1003:A1 7.34364e-05
58 *1141:D *1003:A1 0.000263606
59 *1174:D *1003:A1 6.01821e-05
60 *1189:CLK *1020:A1 0.0002544
61 *1190:RESET_B *324:70 0.000119873
62 *1193:CLK *324:26 5.31158e-06
63 *1193:D *920:C 7.5771e-05
64 *1197:A *1037:A1 0.000122817
65 *93:122 *324:32 0.000267554
66 *93:133 *324:32 4.77769e-05
67 *93:219 *1020:A1 0
68 *102:43 *1020:A1 8.08439e-05
69 *102:54 *1020:A1 0
70 *126:43 *1020:A1 0.000282666
71 *126:54 *1020:A1 0.000203133
72 *145:55 *1003:A1 3.09164e-05
73 *145:55 *324:106 0
74 *154:33 *1003:A1 0
75 *239:55 *324:70 8.65529e-06
76 *239:59 *324:70 0.000827788
77 *245:10 *1020:A1 0
78 *256:38 *324:106 0
79 *256:292 *1020:A1 0
80 *256:318 *1020:A1 0
81 *256:330 *1020:A1 0
82 *294:14 *1003:A1 2.04875e-05
83 *300:6 *975:A1 3.75126e-05
*RES
1 *1192:Q *324:8 4.395 
2 *324:8 *324:18 17.825 
3 *324:18 *324:26 13.6 
4 *324:26 *324:32 5.225 
5 *324:32 *324:34 3.42 
6 *324:34 *920:C 7.9425 
7 *324:34 *1048:A1 7.17 
8 *324:32 *324:70 28.07 
9 *324:70 *1037:A1 4.465 
10 *324:70 *1020:A1 29.42 
11 *324:26 *1126:A2 1.6 
12 *324:18 *1233:A 2.47 
13 *324:8 *324:106 7.565 
14 *324:106 *1003:A1 36.845 
15 *324:106 *975:A1 2.395 
*END

*D_NET *325 0.0213093
*CONN
*I *1005:A1 I *D sky130_fd_sc_hd__mux2_1
*I *977:A1 I *D sky130_fd_sc_hd__mux2_1
*I *1126:B1 I *D sky130_fd_sc_hd__a21oi_1
*I *1039:A1 I *D sky130_fd_sc_hd__mux2_1
*I *1022:A1 I *D sky130_fd_sc_hd__mux2_1
*I *1050:A1 I *D sky130_fd_sc_hd__mux2_1
*I *920:B I *D sky130_fd_sc_hd__and3_1
*I *1193:Q O *D sky130_fd_sc_hd__dfrtp_4
*CAP
1 *1005:A1 0.00115093
2 *977:A1 0.000103432
3 *1126:B1 0
4 *1039:A1 0
5 *1022:A1 0.000892602
6 *1050:A1 0.000183516
7 *920:B 0.000275256
8 *1193:Q 0
9 *325:97 0.00194592
10 *325:54 0.00213483
11 *325:14 0.000519975
12 *325:12 0.00135902
13 *325:8 0.000430476
14 *325:4 0.00106645
15 *920:B *1214:A 1.75871e-05
16 *1005:A1 *923:A 0
17 *1022:A1 *1024:A1 0.000758593
18 *1022:A1 *326:53 0.000300417
19 *1050:A1 *1214:A 0.000121659
20 *325:12 *326:36 0.000194914
21 *325:14 *1214:A 2.21697e-05
22 *325:54 *945:B 0.000181369
23 *325:54 *1068:A0 9.73275e-05
24 *325:54 *368:8 0.000116158
25 *949:A *325:54 0.000412125
26 *972:A2 *325:97 4.53873e-05
27 *972:C1 *325:97 1.79174e-05
28 *977:A0 *977:A1 3.00381e-05
29 *977:A0 *1005:A1 8.65525e-05
30 *979:A0 *325:97 0
31 *1003:A1 *1005:A1 0.000553433
32 *1007:S *1005:A1 0.000305796
33 *1039:A0 *1022:A1 4.89395e-05
34 *1039:A0 *325:54 0.000195882
35 *1040:A *1022:A1 4.66108e-05
36 *1048:A1 *920:B 4.77769e-05
37 *1050:A0 *1050:A1 9.19395e-05
38 *1050:S *1050:A1 2.69153e-05
39 *1055:A *1005:A1 0.000457736
40 *1056:A1 *1005:A1 4.51189e-05
41 *1058:A1 *325:97 0
42 *1062:A0 *325:54 0.0001992
43 *1062:A1 *1050:A1 2.20728e-05
44 *1068:S *325:54 7.11301e-05
45 *1070:A1 *1022:A1 2.66935e-05
46 *1083:A *1005:A1 6.2382e-05
47 *1120:A *325:54 8.31074e-05
48 *1127:A *920:B 5.56397e-05
49 *1131:CLK *1005:A1 0
50 *1154:RESET_B *1022:A1 0.000230869
51 *1156:CLK *325:97 0.000155489
52 *1161:CLK *1005:A1 0
53 *1161:D *1005:A1 9.71067e-05
54 *1193:D *325:8 3.33839e-05
55 *1193:RESET_B *325:8 2.53494e-05
56 *1200:A *1022:A1 0.000114016
57 *1233:A *325:97 3.12916e-05
58 *1250:A *325:54 0.000274061
59 *1273:A *325:97 0
60 *93:122 *325:12 2.42043e-05
61 *93:122 *325:14 3.75882e-06
62 *93:122 *325:54 8.53902e-05
63 *94:17 *920:B 8.35118e-05
64 *119:14 *325:54 8.25446e-05
65 *126:69 *1022:A1 0
66 *126:198 *1005:A1 0
67 *145:40 *325:97 0.00035468
68 *154:33 *1005:A1 5.53249e-06
69 *173:38 *1022:A1 0.000160342
70 *173:38 *325:54 4.89395e-05
71 *242:86 *325:97 0
72 *253:72 *1050:A1 7.4242e-05
73 *256:36 *1005:A1 0.000252977
74 *256:36 *325:97 0.000108322
75 *256:38 *325:97 0.000157344
76 *256:77 *325:8 6.71711e-05
77 *256:77 *325:97 0.000407424
78 *256:83 *325:8 3.09162e-05
79 *256:266 *1022:A1 0.0003042
80 *256:286 *1022:A1 0.000236577
81 *256:292 *1022:A1 0
82 *303:30 *1022:A1 4.73108e-05
83 *324:18 *325:97 0.000824469
84 *324:26 *325:8 0.000529996
85 *324:26 *325:97 1.08105e-05
86 *324:32 *325:8 6.59254e-05
87 *324:32 *325:12 0.000194914
88 *324:34 *920:B 0.000175219
89 *324:34 *325:14 9.05535e-05
90 *324:70 *325:14 2.02316e-05
91 *324:70 *325:54 0.00109524
*RES
1 *1193:Q *325:4 1.6 
2 *325:4 *325:8 9.78 
3 *325:8 *325:12 4.175 
4 *325:12 *325:14 1.38 
5 *325:14 *920:B 7.92 
6 *325:14 *1050:A1 7.98 
7 *325:12 *325:54 29.855 
8 *325:54 *1022:A1 29.18 
9 *325:54 *1039:A1 1.6 
10 *325:8 *1126:B1 1.6 
11 *325:4 *325:97 21.155 
12 *325:97 *977:A1 4.74 
13 *325:97 *1005:A1 31.29 
*END

*D_NET *326 0.0208825
*CONN
*I *1007:A1 I *D sky130_fd_sc_hd__mux2_1
*I *979:A1 I *D sky130_fd_sc_hd__mux2_1
*I *1128:A I *D sky130_fd_sc_hd__nor2_1
*I *921:A I *D sky130_fd_sc_hd__and2_1
*I *1024:A1 I *D sky130_fd_sc_hd__mux2_1
*I *1041:A1 I *D sky130_fd_sc_hd__mux2_1
*I *1052:A1 I *D sky130_fd_sc_hd__mux2_1
*I *1194:Q O *D sky130_fd_sc_hd__dfrtp_4
*CAP
1 *1007:A1 0.00102479
2 *979:A1 0
3 *1128:A 0.000109299
4 *921:A 0
5 *1024:A1 0.000638242
6 *1041:A1 7.97818e-05
7 *1052:A1 0
8 *1194:Q 2.09808e-05
9 *326:115 0.0020064
10 *326:53 0.00168947
11 *326:36 0.00208635
12 *326:18 0.00162673
13 *326:8 0.000775612
14 *326:6 0.00115707
15 *1007:A1 *932:A1 0.000364783
16 *1024:A1 *1205:A 5.7344e-05
17 *326:53 *1011:A 0
18 *326:53 *1205:A 5.53249e-06
19 *920:A *326:36 2.49909e-05
20 *931:A1 *1007:A1 0.0010779
21 *932:C1 *1007:A1 0.000289157
22 *979:A0 *1007:A1 3.83041e-05
23 *979:A0 *326:115 4.82919e-05
24 *1007:A0 *1007:A1 4.89395e-05
25 *1008:A *1007:A1 2.49909e-05
26 *1012:A2 *326:53 0.000216975
27 *1012:B1 *326:53 0.000111088
28 *1022:A1 *1024:A1 0.000758593
29 *1022:A1 *326:53 0.000300417
30 *1025:A *1024:A1 0.000137895
31 *1041:A0 *1041:A1 0.000188322
32 *1041:S *1041:A1 1.92392e-05
33 *1043:A0 *326:115 3.89366e-05
34 *1048:A0 *326:36 9.48278e-05
35 *1052:A0 *326:36 0.000390035
36 *1053:A *326:36 3.5678e-06
37 *1053:A *326:53 7.30505e-05
38 *1125:B *326:115 4.23341e-05
39 *1127:B *326:36 0.00038728
40 *1128:B *1128:A 3.5678e-06
41 *1129:B *326:18 0
42 *1132:D *1007:A1 6.74079e-05
43 *1148:RESET_B *1024:A1 0.00012657
44 *1152:D *326:53 9.24881e-05
45 *1153:D *326:53 9.31313e-05
46 *1157:RESET_B *326:115 9.3646e-05
47 *1159:CLK *326:36 4.77807e-05
48 *1159:D *326:36 2.69153e-05
49 *1159:RESET_B *326:36 0.000120524
50 *1167:CLK *1041:A1 0.000142971
51 *1193:D *326:18 4.1299e-05
52 *1193:D *326:36 2.85298e-05
53 *1194:D *326:18 0.000124895
54 *1194:RESET_B *1128:A 7.23602e-05
55 *1194:RESET_B *326:8 3.66286e-05
56 *1194:RESET_B *326:18 4.4133e-05
57 *1273:A *1007:A1 0
58 *93:122 *326:36 6.52989e-05
59 *93:133 *326:18 5.05981e-05
60 *93:141 *326:8 1.6564e-05
61 *93:141 *326:18 0.000147647
62 *93:141 *326:115 2.38749e-05
63 *93:162 *326:115 0.000127877
64 *94:17 *326:18 4.66108e-05
65 *94:17 *326:36 0.000153816
66 *99:59 *1007:A1 2.79723e-05
67 *113:8 *1007:A1 0.000105675
68 *126:144 *1007:A1 0.000208976
69 *126:144 *326:115 0.000158785
70 *126:157 *1007:A1 0.000272
71 *126:177 *1007:A1 0.000288656
72 *240:31 *326:36 0.000232434
73 *242:86 *326:115 1.19928e-05
74 *244:44 *1024:A1 3.0042e-05
75 *253:72 *1128:A 1.14192e-05
76 *256:77 *326:115 3.86214e-05
77 *256:254 *326:53 0.000430392
78 *256:266 *326:53 4.34707e-05
79 *291:6 *326:36 8.13307e-05
80 *303:30 *1024:A1 0.00072365
81 *320:22 *326:53 0.00026952
82 *325:12 *326:36 0.000194914
*RES
1 *1194:Q *326:6 1.96 
2 *326:6 *326:8 1.83 
3 *326:8 *326:18 11.365 
4 *326:18 *326:36 27.43 
5 *326:36 *1052:A1 1.6 
6 *326:36 *326:53 23.99 
7 *326:53 *1041:A1 6.6 
8 *326:53 *1024:A1 21.915 
9 *326:18 *921:A 1.6 
10 *326:8 *1128:A 7.535 
11 *326:6 *326:115 19.525 
12 *326:115 *979:A1 1.6 
13 *326:115 *1007:A1 32.81 
*END

*D_NET *327 0.00142445
*CONN
*I *1240:A I *D sky130_fd_sc_hd__dlygate4sd3_1
*I *983:A I *D sky130_fd_sc_hd__inv_2
*I *1134:Q O *D sky130_fd_sc_hd__dfrtp_1
*CAP
1 *1240:A 0.000395126
2 *983:A 0.000101731
3 *1134:Q 7.65347e-05
4 *327:6 0.000573392
5 *986:C1 *1240:A 0
6 *987:A0 *1240:A 0
7 *1134:RESET_B *983:A 7.15312e-05
8 *1134:RESET_B *327:6 2.65814e-06
9 *259:14 *983:A 0.000203481
*RES
1 *1134:Q *327:6 2.395 
2 *327:6 *983:A 8.255 
3 *327:6 *1240:A 10.19 
*END

*D_NET *328 0.000835506
*CONN
*I *1245:A I *D sky130_fd_sc_hd__dlygate4sd3_1
*I *982:A I *D sky130_fd_sc_hd__inv_2
*I *1135:Q O *D sky130_fd_sc_hd__dfrtp_1
*CAP
1 *1245:A 5.24846e-05
2 *982:A 0.000122953
3 *1135:Q 3.75017e-05
4 *328:6 0.000212939
5 *984:A1 *982:A 9.12671e-06
6 *1087:A *1245:A 6.92618e-05
7 *1136:CLK *982:A 4.80982e-05
8 *99:22 *1245:A 0.000197843
9 *99:22 *328:6 8.52972e-05
*RES
1 *1135:Q *328:6 2.395 
2 *328:6 *982:A 7.85 
3 *328:6 *1245:A 3.43 
*END

*D_NET *329 0.000706635
*CONN
*I *1237:A I *D sky130_fd_sc_hd__dlygate4sd3_1
*I *981:A I *D sky130_fd_sc_hd__inv_2
*I *1136:Q O *D sky130_fd_sc_hd__dfrtp_1
*CAP
1 *1237:A 8.68125e-05
2 *981:A 0.000266505
3 *1136:Q 0
4 *329:6 0.000353318
5 *1262:A *1237:A 0
6 *281:29 *981:A 0
7 *281:29 *1237:A 0
*RES
1 *1136:Q *329:6 3.6 
2 *329:6 *981:A 7.845 
3 *329:6 *1237:A 4.98 
*END

*D_NET *330 0.000343201
*CONN
*I *1211:A I *D sky130_fd_sc_hd__dlygate4sd3_1
*I *1146:Q O *D sky130_fd_sc_hd__dfrtp_1
*CAP
1 *1211:A 0.000128305
2 *1146:Q 0.000128305
3 *93:219 *1211:A 0
4 *102:30 *1211:A 8.65905e-05
5 *102:43 *1211:A 0
*RES
1 *1146:Q *1211:A 9.375 
*END

*D_NET *331 0.000396286
*CONN
*I *1223:A I *D sky130_fd_sc_hd__dlygate4sd3_1
*I *1147:Q O *D sky130_fd_sc_hd__dfrtp_1
*CAP
1 *1223:A 0.000159835
2 *1147:Q 0.000159835
3 *1075:A *1223:A 4.77807e-05
4 *296:10 *1223:A 2.88357e-05
*RES
1 *1147:Q *1223:A 5.72 
*END

*D_NET *332 0.00176931
*CONN
*I *1207:A I *D sky130_fd_sc_hd__dlygate4sd3_1
*I *1148:Q O *D sky130_fd_sc_hd__dfrtp_1
*CAP
1 *1207:A 0.000398526
2 *1148:Q 0.000398526
3 *1024:A0 *1207:A 4.99619e-05
4 *1148:RESET_B *1207:A 0.000499725
5 *245:10 *1207:A 0.000118652
6 *256:354 *1207:A 0.00011852
7 *256:367 *1207:A 0.000185405
*RES
1 *1148:Q *1207:A 16.275 
*END

*D_NET *333 0.000444291
*CONN
*I *1239:A I *D sky130_fd_sc_hd__dlygate4sd3_1
*I *994:A I *D sky130_fd_sc_hd__inv_2
*I *1137:Q O *D sky130_fd_sc_hd__dfrtp_1
*CAP
1 *1239:A 5.7617e-05
2 *994:A 3.87944e-05
3 *1137:Q 3.58965e-05
4 *333:8 0.000132308
5 *996:A1 *1239:A 0
6 *996:B2 *994:A 4.2815e-05
7 *996:B2 *1239:A 0.000109346
8 *997:A1 *994:A 0
9 *1139:RESET_B *333:8 2.75145e-05
*RES
1 *1137:Q *333:8 4.05 
2 *333:8 *994:A 4.47 
3 *333:8 *1239:A 4.98 
*END

*D_NET *334 0.000640775
*CONN
*I *1242:A I *D sky130_fd_sc_hd__dlygate4sd3_1
*I *993:A I *D sky130_fd_sc_hd__inv_2
*I *1138:Q O *D sky130_fd_sc_hd__dfrtp_1
*CAP
1 *1242:A 0.000141513
2 *993:A 0.000131985
3 *1138:Q 3.34843e-05
4 *334:6 0.000306982
5 *996:B2 *993:A 2.68111e-05
*RES
1 *1138:Q *334:6 2.05 
2 *334:6 *993:A 7.745 
3 *334:6 *1242:A 3.775 
*END

*D_NET *335 0.00153417
*CONN
*I *1204:A I *D sky130_fd_sc_hd__dlygate4sd3_1
*I *992:A I *D sky130_fd_sc_hd__inv_2
*I *1139:Q O *D sky130_fd_sc_hd__dfrtp_1
*CAP
1 *1204:A 0.000358251
2 *992:A 3.63947e-05
3 *1139:Q 0
4 *335:4 0.000394645
5 *996:A1 *992:A 5.53249e-06
6 *996:B1 *992:A 1.73877e-05
7 *997:A1 *992:A 4.2815e-05
8 *997:A2 *1204:A 2.03321e-05
9 *997:B2 *1204:A 7.23602e-05
10 *1092:S *992:A 4.89395e-05
11 *1139:CLK *992:A 1.49572e-05
12 *1139:CLK *1204:A 0.000153436
13 *1139:RESET_B *992:A 4.77769e-05
14 *1139:RESET_B *1204:A 3.70755e-05
15 *1256:A *1204:A 0.000123955
16 *314:22 *1204:A 0.000160314
*RES
1 *1139:Q *335:4 1.6 
2 *335:4 *992:A 6.92 
3 *335:4 *1204:A 11.675 
*END

*D_NET *336 6.16326e-05
*CONN
*I *1206:A I *D sky130_fd_sc_hd__dlygate4sd3_1
*I *1152:Q O *D sky130_fd_sc_hd__dfrtp_1
*CAP
1 *1206:A 2.07294e-05
2 *1152:Q 2.07294e-05
3 *278:8 *1206:A 2.01737e-05
*RES
1 *1152:Q *1206:A 3.65 
*END

*D_NET *337 0.000783923
*CONN
*I *1249:A I *D sky130_fd_sc_hd__dlygate4sd3_1
*I *1153:Q O *D sky130_fd_sc_hd__dfrtp_1
*CAP
1 *1249:A 0.000297867
2 *1153:Q 0.000297867
3 *1249:A *946:B 1.16578e-05
4 *1069:A *1249:A 0.00012657
5 *1168:D *1249:A 4.99619e-05
*RES
1 *1153:Q *1249:A 8.135 
*END

*D_NET *338 0.000686393
*CONN
*I *1205:A I *D sky130_fd_sc_hd__dlygate4sd3_1
*I *1154:Q O *D sky130_fd_sc_hd__dfrtp_1
*CAP
1 *1205:A 0.000213434
2 *1154:Q 0.000213434
3 *1024:A1 *1205:A 5.7344e-05
4 *1154:RESET_B *1205:A 0.000196647
5 *326:53 *1205:A 5.53249e-06
*RES
1 *1154:Q *1205:A 10.41 
*END

*D_NET *339 0.0017193
*CONN
*I *1235:A I *D sky130_fd_sc_hd__dlygate4sd3_1
*I *1011:A I *D sky130_fd_sc_hd__inv_2
*I *1143:Q O *D sky130_fd_sc_hd__dfrtp_1
*CAP
1 *1235:A 0.00016758
2 *1011:A 0.000224876
3 *1143:Q 8.17971e-05
4 *339:8 0.000474253
5 *1011:A *340:6 4.77719e-05
6 *1012:B1 *1011:A 0
7 *1015:A0 *1011:A 4.83032e-05
8 *1015:A0 *1235:A 0.000122801
9 *1017:A0 *1011:A 0.000134772
10 *1017:A1 *1011:A 3.24326e-05
11 *1040:A *1235:A 0.000150545
12 *1153:CLK *1011:A 0
13 *1153:D *1011:A 0
14 *1153:D *1235:A 0.000234169
15 *173:16 *1011:A 0
16 *326:53 *1011:A 0
*RES
1 *1143:Q *339:8 2.755 
2 *339:8 *1011:A 9.98 
3 *339:8 *1235:A 5.86 
*END

*D_NET *340 0.00105517
*CONN
*I *1010:A I *D sky130_fd_sc_hd__inv_2
*I *1243:A I *D sky130_fd_sc_hd__dlygate4sd3_1
*I *1144:Q O *D sky130_fd_sc_hd__dfrtp_1
*CAP
1 *1010:A 7.61833e-05
2 *1243:A 0
3 *1144:Q 0.0002362
4 *340:6 0.000312383
5 *1011:A *340:6 4.77719e-05
6 *1012:B1 *340:6 0.000382634
*RES
1 *1144:Q *340:6 6.19 
2 *340:6 *1243:A 1.6 
3 *340:6 *1010:A 2.755 
*END

*D_NET *341 0.00200414
*CONN
*I *1246:A I *D sky130_fd_sc_hd__dlygate4sd3_1
*I *1009:A I *D sky130_fd_sc_hd__inv_2
*I *1145:Q O *D sky130_fd_sc_hd__dfrtp_1
*CAP
1 *1246:A 0.000268036
2 *1009:A 0.00022609
3 *1145:Q 3.58555e-05
4 *341:6 0.000529981
5 *1013:A1 *1009:A 9.53428e-06
6 *1013:B1 *1009:A 2.23006e-05
7 *1013:B2 *1009:A 4.89295e-05
8 *1031:C1 *1009:A 0.000176685
9 *1031:C1 *1246:A 2.21697e-05
10 *1053:A *1246:A 0.000269323
11 *1160:D *1009:A 9.41477e-05
12 *1160:D *1246:A 7.01303e-05
13 *168:6 *1009:A 2.69736e-05
14 *240:73 *1246:A 8.23457e-05
15 *240:73 *341:6 4.66108e-05
16 *320:30 *1009:A 7.50252e-05
*RES
1 *1145:Q *341:6 2.05 
2 *341:6 *1009:A 10.52 
3 *341:6 *1246:A 10.55 
*END

*D_NET *342 0.000885376
*CONN
*I *1229:A I *D sky130_fd_sc_hd__dlygate4sd3_1
*I *1158:Q O *D sky130_fd_sc_hd__dfrtp_1
*CAP
1 *1229:A 0.00016601
2 *1158:Q 0.00016601
3 *920:C *1229:A 2.16104e-05
4 *1048:A0 *1229:A 0
5 *1049:A *1229:A 0
6 *1060:A1 *1229:A 5.83121e-06
7 *1127:B *1229:A 0.000151254
8 *1194:CLK *1229:A 0.000292314
9 *253:72 *1229:A 8.23457e-05
*RES
1 *1158:Q *1229:A 11.52 
*END

*D_NET *343 0.000453631
*CONN
*I *1214:A I *D sky130_fd_sc_hd__dlygate4sd3_1
*I *1159:Q O *D sky130_fd_sc_hd__dfrtp_1
*CAP
1 *1214:A 0.000103082
2 *1159:Q 0.000103082
3 *920:B *1214:A 1.75871e-05
4 *1050:A1 *1214:A 0.000121659
5 *1062:A1 *1214:A 3.72081e-05
6 *253:72 *1214:A 4.88428e-05
7 *325:14 *1214:A 2.21697e-05
*RES
1 *1159:Q *1214:A 9.72 
*END

*D_NET *344 0.000207649
*CONN
*I *1219:A I *D sky130_fd_sc_hd__dlygate4sd3_1
*I *1160:Q O *D sky130_fd_sc_hd__dfrtp_1
*CAP
1 *1219:A 6.91569e-05
2 *1160:Q 6.91569e-05
3 *1052:A0 *1219:A 3.03989e-05
4 *1064:A1 *1219:A 3.89366e-05
*RES
1 *1160:Q *1219:A 8.685 
*END

*D_NET *345 0.0018525
*CONN
*I *1241:A I *D sky130_fd_sc_hd__dlygate4sd3_1
*I *1028:A I *D sky130_fd_sc_hd__inv_2
*I *1149:Q O *D sky130_fd_sc_hd__dfrtp_1
*CAP
1 *1241:A 0
2 *1028:A 0.000224075
3 *1149:Q 0.000339293
4 *345:12 0.000563369
5 *1029:B1 *1028:A 0.000279787
6 *1032:A1 *345:12 0
7 *1049:A *345:12 0
8 *1258:A *1028:A 5.84828e-05
9 *184:32 *345:12 4.91778e-05
10 *250:14 *1028:A 0.000338314
*RES
1 *1149:Q *345:12 10.16 
2 *345:12 *1028:A 7.585 
3 *345:12 *1241:A 1.6 
*END

*D_NET *346 0.00199662
*CONN
*I *1027:A I *D sky130_fd_sc_hd__inv_2
*I *1034:A0 I *D sky130_fd_sc_hd__mux2_1
*I *1150:Q O *D sky130_fd_sc_hd__dfrtp_1
*CAP
1 *1027:A 0.000282907
2 *1034:A0 0.000294071
3 *1150:Q 5.80004e-05
4 *346:6 0.000634978
5 *1029:C1 *1027:A 4.82919e-05
6 *1030:B2 *1027:A 6.9117e-05
7 *1034:A1 *1034:A0 0.000114649
8 *1149:D *1027:A 0
9 *184:20 *1027:A 7.06865e-05
10 *184:65 *1027:A 0.000129508
11 *240:50 *1034:A0 0.0001979
12 *240:50 *346:6 4.31979e-05
13 *252:23 *1027:A 0
14 *320:22 *1034:A0 5.33142e-05
*RES
1 *1150:Q *346:6 2.395 
2 *346:6 *1034:A0 10.445 
3 *346:6 *1027:A 11 
*END

*D_NET *347 0.000726373
*CONN
*I *1026:A I *D sky130_fd_sc_hd__inv_2
*I *1226:A I *D sky130_fd_sc_hd__dlygate4sd3_1
*I *1151:Q O *D sky130_fd_sc_hd__dfrtp_1
*CAP
1 *1026:A 4.43267e-05
2 *1226:A 0
3 *1151:Q 4.99231e-05
4 *347:6 9.42498e-05
5 *1031:C1 *1026:A 7.49327e-05
6 *1031:C1 *347:6 0.000273369
7 *1150:RESET_B *1026:A 3.00381e-05
8 *1150:RESET_B *347:6 0.000159534
*RES
1 *1151:Q *347:6 4.12 
2 *347:6 *1226:A 1.6 
3 *347:6 *1026:A 2.755 
*END

*D_NET *348 0.000328173
*CONN
*I *1228:A I *D sky130_fd_sc_hd__dlygate4sd3_1
*I *1131:Q O *D sky130_fd_sc_hd__dfrtp_1
*CAP
1 *1228:A 0.000164086
2 *1131:Q 0.000164086
3 *270:10 *1228:A 0
*RES
1 *1131:Q *1228:A 9.375 
*END

*D_NET *349 0.000790953
*CONN
*I *1217:A I *D sky130_fd_sc_hd__dlygate4sd3_1
*I *1132:Q O *D sky130_fd_sc_hd__dfrtp_1
*CAP
1 *1217:A 0.000198592
2 *1132:Q 0.000198592
3 *1003:A1 *1217:A 4.23878e-05
4 *1054:A1 *1217:A 0.000114649
5 *256:26 *1217:A 0.000236733
*RES
1 *1132:Q *1217:A 10.755 
*END

*D_NET *350 0.000495444
*CONN
*I *1220:A I *D sky130_fd_sc_hd__dlygate4sd3_1
*I *1133:Q O *D sky130_fd_sc_hd__dfrtp_1
*CAP
1 *1220:A 0.000109111
2 *1133:Q 0.000109111
3 *1133:RESET_B *1220:A 0.000277223
*RES
1 *1133:Q *1220:A 5.72 
*END

*D_NET *351 0.000734867
*CONN
*I *1236:A I *D sky130_fd_sc_hd__dlygate4sd3_1
*I *971:A I *D sky130_fd_sc_hd__inv_2
*I *1155:Q O *D sky130_fd_sc_hd__dfrtp_1
*CAP
1 *1236:A 6.34112e-05
2 *971:A 0.000121163
3 *1155:Q 5.86761e-05
4 *351:6 0.00024325
5 *972:C1 *971:A 7.15997e-05
6 *1043:A0 *351:6 2.49909e-05
7 *1043:S *1236:A 4.66108e-05
8 *1155:RESET_B *1236:A 6.2053e-05
9 *1155:RESET_B *351:6 4.31127e-05
*RES
1 *1155:Q *351:6 2.74 
2 *351:6 *971:A 7.85 
3 *351:6 *1236:A 3.085 
*END

*D_NET *352 0.000815978
*CONN
*I *970:A I *D sky130_fd_sc_hd__inv_2
*I *1244:A I *D sky130_fd_sc_hd__dlygate4sd3_1
*I *1156:Q O *D sky130_fd_sc_hd__dfrtp_1
*CAP
1 *970:A 0.000262736
2 *1244:A 0
3 *1156:Q 0.000141889
4 *352:10 0.000404625
5 *324:18 *970:A 6.72833e-06
*RES
1 *1156:Q *352:10 5.685 
2 *352:10 *1244:A 3.6 
3 *352:10 *970:A 7.665 
*END

*D_NET *353 0.00104093
*CONN
*I *969:A I *D sky130_fd_sc_hd__inv_2
*I *1215:A I *D sky130_fd_sc_hd__dlygate4sd3_1
*I *1157:Q O *D sky130_fd_sc_hd__dfrtp_1
*CAP
1 *969:A 9.62415e-05
2 *1215:A 8.964e-06
3 *1157:Q 6.38763e-05
4 *353:10 0.000169082
5 *1273:A *353:10 0.000116165
6 *250:14 *969:A 0.000349592
7 *250:14 *1215:A 4.82863e-05
8 *255:35 *969:A 0.000158681
9 *255:35 *1215:A 3.00381e-05
*RES
1 *1157:Q *353:10 6.98 
2 *353:10 *1215:A 2.05 
3 *353:10 *969:A 5.17 
*END

*D_NET *354 0.000943951
*CONN
*I *953:A I *D sky130_fd_sc_hd__buf_6
*I *1130:Q O *D sky130_fd_sc_hd__dfrtp_1
*CAP
1 *953:A 0.000295879
2 *1130:Q 0.000295879
3 *242:12 *953:A 0.000303346
4 *242:31 *953:A 4.88478e-05
*RES
1 *1130:Q *953:A 12.015 
*END

*D_NET *355 0.0116158
*CONN
*I *925:A I *D sky130_fd_sc_hd__inv_2
*I *1105:A I *D sky130_fd_sc_hd__nand2_1
*I *1106:A I *D sky130_fd_sc_hd__or2_1
*I *936:B_N I *D sky130_fd_sc_hd__or2b_1
*I *1084:A1 I *D sky130_fd_sc_hd__mux2_1
*I *932:A1 I *D sky130_fd_sc_hd__a211o_1
*I *941:B I *D sky130_fd_sc_hd__xnor2_1
*I *1183:Q O *D sky130_fd_sc_hd__dfrtp_4
*CAP
1 *925:A 0
2 *1105:A 0
3 *1106:A 0.00021393
4 *936:B_N 0.000236857
5 *1084:A1 0.0009099
6 *932:A1 0.000471719
7 *941:B 0
8 *1183:Q 0.00013717
9 *355:84 0.000513353
10 *355:61 0.000837331
11 *355:53 0.000421009
12 *355:19 0.00144266
13 *355:17 0.000340981
14 *355:6 0.00029715
15 *355:17 *941:A 1.70935e-05
16 *355:61 *1247:A 8.52845e-05
17 *931:A1 *932:A1 1.97209e-05
18 *931:A1 *355:17 1.07797e-05
19 *931:A1 *355:53 0.000411097
20 *932:B1 *932:A1 0.000144246
21 *1007:A1 *932:A1 0.000364783
22 *1008:A *932:A1 0.000304194
23 *1008:A *355:17 8.53113e-06
24 *1008:A *355:19 0.000183307
25 *1084:S *1084:A1 3.75194e-05
26 *1101:B1 *355:61 4.82919e-05
27 *1102:C *355:84 3.86529e-05
28 *1103:A *355:84 0
29 *1112:A1 *936:B_N 0.000174569
30 *1114:B1 *936:B_N 0.00012398
31 *1115:B *936:B_N 2.21785e-05
32 *1141:D *1084:A1 6.62684e-05
33 *1141:RESET_B *1084:A1 7.77983e-05
34 *1142:D *932:A1 0.000157041
35 *1142:D *355:19 0.000108031
36 *1183:RESET_B *355:6 4.88478e-05
37 *1191:RESET_B *932:A1 0.00044661
38 *1203:A *936:B_N 0.000183046
39 *30:113 *1084:A1 0.000197826
40 *97:33 *932:A1 7.53426e-05
41 *98:8 *355:53 4.77757e-05
42 *98:8 *355:61 0.000843687
43 *99:134 *1106:A 0.000137578
44 *102:30 *355:84 0.000271303
45 *126:177 *932:A1 0.000229594
46 *126:265 *1106:A 9.09197e-05
47 *139:23 *936:B_N 0.000102732
48 *139:23 *355:84 3.29528e-05
49 *139:36 *355:84 0.000225182
50 *139:47 *355:84 0.000139933
51 *219:22 *936:B_N 7.11608e-05
52 *219:45 *1106:A 0
53 *256:688 *355:17 0
54 *256:696 *355:17 0
55 *256:696 *355:53 2.91399e-05
56 *256:702 *355:53 9.79895e-05
57 *256:702 *355:61 8.09928e-05
58 *256:720 *355:53 3.7725e-05
*RES
1 *1183:Q *355:6 3.775 
2 *355:6 *941:B 1.6 
3 *355:6 *355:17 4.595 
4 *355:17 *355:19 2.145 
5 *355:19 *932:A1 17.655 
6 *355:19 *1084:A1 17.625 
7 *355:17 *355:53 6.245 
8 *355:53 *355:61 10.6325 
9 *355:61 *936:B_N 9.4875 
10 *355:61 *355:84 9.0875 
11 *355:84 *1106:A 9.41 
12 *355:84 *1105:A 1.6 
13 *355:53 *925:A 1.6 
*END

*D_NET *356 0.000160936
*CONN
*I *926:A I *D sky130_fd_sc_hd__clkbuf_4
*I *1184:Q O *D sky130_fd_sc_hd__dfrtp_1
*CAP
1 *926:A 5.49963e-05
2 *1184:Q 5.49963e-05
3 *256:771 *926:A 5.09431e-05
*RES
1 *1184:Q *926:A 4.355 
*END

*D_NET *357 0.000710391
*CONN
*I *929:A I *D sky130_fd_sc_hd__clkbuf_4
*I *1185:Q O *D sky130_fd_sc_hd__dfrtp_1
*CAP
1 *929:A 0.000217244
2 *1185:Q 0.000217244
3 *1185:RESET_B *929:A 0.000159488
4 *126:242 *929:A 8.64421e-05
5 *256:753 *929:A 2.99731e-05
*RES
1 *1185:Q *929:A 10.605 
*END

*D_NET *358 0.00168087
*CONN
*I *1231:A I *D sky130_fd_sc_hd__dlygate4sd3_1
*I *941:A I *D sky130_fd_sc_hd__xnor2_1
*I *1173:Q O *D sky130_fd_sc_hd__dfrtp_1
*CAP
1 *1231:A 0.000201553
2 *941:A 0.000361817
3 *1173:Q 0
4 *358:4 0.00056337
5 *1078:A0 *1231:A 4.99619e-05
6 *1078:A1 *941:A 0
7 *1140:CLK *1231:A 1.85674e-05
8 *1173:RESET_B *941:A 8.92366e-05
9 *126:228 *1231:A 0.000138175
10 *126:242 *941:A 0
11 *126:242 *1231:A 5.2089e-05
12 *247:62 *941:A 4.82883e-05
13 *256:688 *941:A 0.000140721
14 *355:17 *941:A 1.70935e-05
*RES
1 *1173:Q *358:4 1.6 
2 *358:4 *941:A 11.795 
3 *358:4 *1231:A 9.605 
*END

*D_NET *359 0.000891735
*CONN
*I *940:A I *D sky130_fd_sc_hd__xnor2_1
*I *1232:A I *D sky130_fd_sc_hd__dlygate4sd3_1
*I *1174:Q O *D sky130_fd_sc_hd__dfrtp_1
*CAP
1 *940:A 0.000126479
2 *1232:A 3.54177e-05
3 *1174:Q 0.000161081
4 *359:10 0.000322978
5 *940:B *940:A 8.52845e-05
6 *99:51 *940:A 6.13283e-05
7 *99:51 *359:10 9.91655e-05
*RES
1 *1174:Q *359:10 6.195 
2 *359:10 *1232:A 4.215 
3 *359:10 *940:A 6.12 
*END

*D_NET *360 0.00303304
*CONN
*I *1082:A0 I *D sky130_fd_sc_hd__mux2_1
*I *939:A I *D sky130_fd_sc_hd__xnor2_1
*I *1175:Q O *D sky130_fd_sc_hd__dfrtp_1
*CAP
1 *1082:A0 0
2 *939:A 0.000778693
3 *1175:Q 0.000108286
4 *360:12 0.000886979
5 *942:B *939:A 1.16854e-05
6 *942:C *939:A 0.000121039
7 *962:A *939:A 0.000127356
8 *1082:S *360:12 7.03219e-05
9 *1174:D *360:12 7.03219e-05
10 *113:8 *939:A 0.000739108
11 *113:8 *360:12 0.000119247
*RES
1 *1175:Q *360:12 7.61 
2 *360:12 *939:A 12.88 
3 *360:12 *1082:A0 1.6 
*END

*D_NET *361 0.00283878
*CONN
*I *1072:A0 I *D sky130_fd_sc_hd__mux2_1
*I *936:A I *D sky130_fd_sc_hd__or2b_1
*I *935:A2 I *D sky130_fd_sc_hd__a221oi_2
*I *1170:Q O *D sky130_fd_sc_hd__dfrtp_1
*CAP
1 *1072:A0 0.000269639
2 *936:A 0.000125515
3 *935:A2 4.81098e-05
4 *1170:Q 6.13834e-05
5 *361:12 0.000550881
6 *361:8 0.00070828
7 *933:A *361:12 0.000367688
8 *935:A1 *935:A2 8.64488e-05
9 *935:A1 *936:A 4.29365e-05
10 *954:A *1072:A0 5.12969e-06
11 *1072:S *1072:A0 0.000136901
12 *1092:A1 *361:8 7.64385e-05
13 *1092:A1 *361:12 0.000107902
14 *1106:B *361:12 0.000129742
15 *126:265 *1072:A0 2.83579e-05
16 *127:16 *361:8 7.14241e-05
17 *239:22 *935:A2 2.20014e-05
18 *253:40 *361:8 0
19 *253:40 *361:12 0
*RES
1 *1170:Q *361:8 5.235 
2 *361:8 *361:12 10.01 
3 *361:12 *935:A2 2.74 
4 *361:12 *936:A 3.355 
5 *361:8 *1072:A0 7.86 
*END

*D_NET *362 0.00283531
*CONN
*I *938:A2 I *D sky130_fd_sc_hd__o2111a_1
*I *935:B1 I *D sky130_fd_sc_hd__a221oi_2
*I *1074:A0 I *D sky130_fd_sc_hd__mux2_1
*I *1171:Q O *D sky130_fd_sc_hd__dfrtp_1
*CAP
1 *938:A2 0
2 *935:B1 0.000132878
3 *1074:A0 0.00029842
4 *1171:Q 0
5 *362:27 0.000481808
6 *362:4 0.00064735
7 *935:B1 *964:B2 1.79483e-05
8 *935:B1 *375:20 0.000198184
9 *362:27 *938:B1 1.9872e-05
10 *938:A1 *935:B1 7.66105e-05
11 *938:C1 *362:27 2.14495e-05
12 *1020:A1 *1074:A0 0.000311655
13 *1075:A *1074:A0 0.000380062
14 *1171:D *1074:A0 2.747e-05
15 *1171:D *362:27 8.52972e-05
16 *108:12 *935:B1 1.52702e-05
17 *239:22 *935:B1 0.000121036
*RES
1 *1171:Q *362:4 1.6 
2 *362:4 *1074:A0 12.59 
3 *362:4 *362:27 5.58 
4 *362:27 *935:B1 9.14 
5 *362:27 *938:A2 1.6 
*END

*D_NET *363 0.00231395
*CONN
*I *937:B_N I *D sky130_fd_sc_hd__or2b_1
*I *934:A_N I *D sky130_fd_sc_hd__and2b_1
*I *1076:A0 I *D sky130_fd_sc_hd__mux2_1
*I *1172:Q O *D sky130_fd_sc_hd__dfrtp_1
*CAP
1 *937:B_N 0.000241462
2 *934:A_N 0
3 *1076:A0 0.000530377
4 *1172:Q 0
5 *363:21 0.000335587
6 *363:4 0.000624502
7 *1020:A1 *937:B_N 4.91927e-05
8 *1024:A0 *1076:A0 0.000141599
9 *1075:A *937:B_N 8.53113e-06
10 *1188:RESET_B *937:B_N 0.000198939
11 *1188:RESET_B *1076:A0 5.8186e-05
12 *1188:RESET_B *363:21 2.59926e-05
13 *102:54 *937:B_N 9.95805e-05
*RES
1 *1172:Q *363:4 1.6 
2 *363:4 *1076:A0 12.17 
3 *363:4 *363:21 1.41 
4 *363:21 *934:A_N 1.6 
5 *363:21 *937:B_N 10.475 
*END

*D_NET *364 0.00307028
*CONN
*I *948:A2 I *D sky130_fd_sc_hd__o21ai_1
*I *951:A2 I *D sky130_fd_sc_hd__a2111o_2
*I *1066:A0 I *D sky130_fd_sc_hd__mux2_1
*I *1167:Q O *D sky130_fd_sc_hd__dfrtp_1
*CAP
1 *948:A2 0.000128384
2 *951:A2 0.000270936
3 *1066:A0 0.000338201
4 *1167:Q 0.000378896
5 *364:17 0.00039932
6 *364:6 0.000717097
7 *948:A1 *948:A2 4.89295e-05
8 *951:B1 *951:A2 8.52845e-05
9 *951:C1 *951:A2 2.20014e-05
10 *951:D1 *948:A2 0.000110683
11 *951:D1 *951:A2 0.000225692
12 *1066:S *1066:A0 5.83121e-06
13 *1167:CLK *1066:A0 8.81262e-05
14 *1167:RESET_B *951:A2 9.67081e-06
15 *93:219 *951:A2 3.4243e-05
16 *124:10 *951:A2 4.35931e-05
17 *124:55 *364:6 5.72654e-05
18 *256:471 *951:A2 8.48743e-05
19 *256:471 *364:6 2.12557e-05
*RES
1 *1167:Q *364:6 5.845 
2 *364:6 *1066:A0 6.55 
3 *364:6 *364:17 2 
4 *364:17 *951:A2 9.15 
5 *364:17 *948:A2 6.135 
*END

*D_NET *365 0.00172225
*CONN
*I *949:B I *D sky130_fd_sc_hd__xor2_1
*I *1068:A0 I *D sky130_fd_sc_hd__mux2_1
*I *1168:Q O *D sky130_fd_sc_hd__dfrtp_1
*CAP
1 *949:B 0
2 *1068:A0 0.000179825
3 *1168:Q 0.000228949
4 *365:12 0.000408774
5 *365:12 *946:B 7.23602e-05
6 *365:12 *1225:A 1.77665e-05
7 *949:A *1068:A0 1.22325e-05
8 *1068:S *1068:A0 4.77769e-05
9 *1250:A *1068:A0 0.000170607
10 *93:219 *365:12 0.000214347
11 *275:14 *1068:A0 0.000272283
12 *325:54 *1068:A0 9.73275e-05
*RES
1 *1168:Q *365:12 9.725 
2 *365:12 *1068:A0 7 
3 *365:12 *949:B 1.6 
*END

*D_NET *366 0.000544535
*CONN
*I *950:B I *D sky130_fd_sc_hd__xor2_1
*I *1212:A I *D sky130_fd_sc_hd__dlygate4sd3_1
*I *1169:Q O *D sky130_fd_sc_hd__dfrtp_1
*CAP
1 *950:B 7.20044e-05
2 *1212:A 0
3 *1169:Q 0.000142382
4 *366:6 0.000214387
5 *256:296 *366:6 0.000115762
*RES
1 *1169:Q *366:6 4.12 
2 *366:6 *1212:A 1.6 
3 *366:6 *950:B 2.74 
*END

*D_NET *367 0.00315723
*CONN
*I *959:A2 I *D sky130_fd_sc_hd__a2111oi_1
*I *947:A2 I *D sky130_fd_sc_hd__a2111o_1
*I *944:A2 I *D sky130_fd_sc_hd__o21ai_1
*I *1060:A0 I *D sky130_fd_sc_hd__mux2_1
*I *1164:Q O *D sky130_fd_sc_hd__dfrtp_1
*CAP
1 *959:A2 0.000180232
2 *947:A2 5.23695e-05
3 *944:A2 2.57534e-05
4 *1060:A0 0.000170327
5 *1164:Q 0.000252648
6 *367:36 0.000289107
7 *367:23 0.000436429
8 *367:6 0.000777144
9 *944:A2 *944:B1 8.8266e-05
10 *944:A1 *944:A2 4.99619e-05
11 *946:A *944:A2 4.35348e-05
12 *947:B1 *947:A2 4.75885e-05
13 *947:B1 *959:A2 8.34281e-06
14 *947:C1 *367:23 0
15 *947:C1 *367:36 0
16 *959:A1 *944:A2 0.000113237
17 *959:A1 *959:A2 0.000140964
18 *959:A1 *367:36 8.96077e-05
19 *959:C1 *367:23 2.75707e-05
20 *959:C1 *367:36 7.21296e-06
21 *1060:S *1060:A0 2.97561e-05
22 *1061:A *1060:A0 0
23 *1061:A *367:23 0.000116165
24 *1164:D *367:23 7.23602e-05
25 *1164:RESET_B *1060:A0 2.03578e-05
26 *1164:RESET_B *367:6 2.40101e-05
27 *1199:A *1060:A0 1.22676e-05
28 *98:59 *367:36 2.59285e-05
29 *239:59 *1060:A0 0
30 *243:31 *367:23 0
31 *243:35 *367:23 0
32 *256:165 *367:6 5.60908e-05
*RES
1 *1164:Q *367:6 4.465 
2 *367:6 *1060:A0 8.765 
3 *367:6 *367:23 7.505 
4 *367:23 *944:A2 5.085 
5 *367:23 *367:36 3.38 
6 *367:36 *947:A2 2.875 
7 *367:36 *959:A2 3.775 
*END

*D_NET *368 0.00160071
*CONN
*I *945:B I *D sky130_fd_sc_hd__xor2_1
*I *1222:A I *D sky130_fd_sc_hd__dlygate4sd3_1
*I *1165:Q O *D sky130_fd_sc_hd__dfrtp_1
*CAP
1 *945:B 0.000106808
2 *1222:A 0.00019079
3 *1165:Q 3.3792e-05
4 *368:8 0.00033139
5 *945:A *945:B 1.16578e-05
6 *946:A *945:B 0.000122331
7 *1062:A0 *1222:A 0.000108031
8 *1062:A0 *368:8 7.23533e-05
9 *1120:A *945:B 9.76522e-05
10 *1120:A *368:8 2.68721e-05
11 *1164:RESET_B *1222:A 0.000201508
12 *325:54 *945:B 0.000181369
13 *325:54 *368:8 0.000116158
*RES
1 *1165:Q *368:8 4.98 
2 *368:8 *1222:A 7.5 
3 *368:8 *945:B 6.885 
*END

*D_NET *369 0.00145101
*CONN
*I *946:B I *D sky130_fd_sc_hd__xor2_1
*I *1225:A I *D sky130_fd_sc_hd__dlygate4sd3_1
*I *1166:Q O *D sky130_fd_sc_hd__dfrtp_1
*CAP
1 *946:B 0.000178193
2 *1225:A 0.000167698
3 *1166:Q 0.000134036
4 *369:8 0.000479928
5 *946:A *946:B 3.13354e-05
6 *1064:A0 *369:8 7.23602e-05
7 *1165:D *369:8 0.000117825
8 *1249:A *946:B 1.16578e-05
9 *93:122 *369:8 5.12942e-05
10 *93:219 *946:B 5.50989e-05
11 *93:219 *369:8 6.14602e-05
12 *253:72 *946:B 0
13 *253:72 *369:8 0
14 *365:12 *946:B 7.23602e-05
15 *365:12 *1225:A 1.77665e-05
*RES
1 *1166:Q *369:8 7.02 
2 *369:8 *1225:A 6.12 
3 *369:8 *946:B 7.095 
*END

*D_NET *370 0.00446307
*CONN
*I *1054:A0 I *D sky130_fd_sc_hd__mux2_1
*I *923:A I *D sky130_fd_sc_hd__inv_2
*I *931:A2 I *D sky130_fd_sc_hd__a221o_1
*I *1161:Q O *D sky130_fd_sc_hd__dfrtp_1
*CAP
1 *1054:A0 0.00039091
2 *923:A 0.00025663
3 *931:A2 0.00024421
4 *1161:Q 0
5 *370:8 0.00106689
6 *370:4 0.000956962
7 *931:A2 *928:B 6.8642e-05
8 *931:A2 *371:8 0.000192792
9 *931:A1 *923:A 0
10 *931:A1 *931:A2 0.000102006
11 *931:B1 *931:A2 0.000102006
12 *1005:A1 *923:A 0
13 *1056:A0 *1054:A0 0.000197843
14 *1161:CLK *923:A 7.28486e-05
15 *1161:CLK *931:A2 7.03219e-05
16 *1161:D *923:A 0
17 *99:51 *370:8 0.0004524
18 *256:12 *1054:A0 0.000125123
19 *256:16 *1054:A0 0.000113222
20 *262:12 *931:A2 5.02564e-05
*RES
1 *1161:Q *370:4 1.6 
2 *370:4 *370:8 9.35 
3 *370:8 *931:A2 9.2775 
4 *370:8 *923:A 7.845 
5 *370:4 *1054:A0 11.72 
*END

*D_NET *371 0.00299354
*CONN
*I *1218:A I *D sky130_fd_sc_hd__dlygate4sd3_1
*I *927:B I *D sky130_fd_sc_hd__or2_1
*I *928:B I *D sky130_fd_sc_hd__nand2_1
*I *1162:Q O *D sky130_fd_sc_hd__dfrtp_1
*CAP
1 *1218:A 0.000114596
2 *927:B 0
3 *928:B 0.000298962
4 *1162:Q 0
5 *371:8 0.000868497
6 *371:4 0.000684132
7 *931:A1 *928:B 0.000156778
8 *931:A2 *928:B 6.8642e-05
9 *931:A2 *371:8 0.000192792
10 *931:B2 *928:B 3.89366e-05
11 *1162:CLK *371:8 0.000158556
12 *1162:D *371:8 4.06619e-05
13 *1162:RESET_B *371:8 0.000115311
14 *126:177 *928:B 0.000112589
15 *256:12 *1218:A 2.85623e-05
16 *256:16 *1218:A 0.000114518
*RES
1 *1162:Q *371:4 1.6 
2 *371:4 *371:8 10.035 
3 *371:8 *928:B 10.205 
4 *371:8 *927:B 1.6 
5 *371:4 *1218:A 7.85 
*END

*D_NET *372 0.0019929
*CONN
*I *1224:A I *D sky130_fd_sc_hd__dlygate4sd3_1
*I *930:B I *D sky130_fd_sc_hd__xor2_1
*I *1163:Q O *D sky130_fd_sc_hd__dfrtp_1
*CAP
1 *1224:A 0.000333766
2 *930:B 0.00030555
3 *1163:Q 0
4 *372:4 0.000639316
5 *978:A *1224:A 0
6 *1058:A0 *1224:A 0.000198051
7 *1058:A1 *1224:A 0.000108761
8 *1058:S *1224:A 2.75229e-05
9 *1132:D *1224:A 8.16598e-05
10 *1163:RESET_B *930:B 6.12706e-05
11 *1163:RESET_B *1224:A 8.1609e-05
12 *1164:RESET_B *930:B 7.00889e-06
13 *1164:RESET_B *1224:A 0
14 *102:112 *930:B 2.98644e-05
15 *243:66 *930:B 0.00011852
*RES
1 *1163:Q *372:4 1.6 
2 *372:4 *930:B 10.76 
3 *372:4 *1224:A 8.56 
*END

*D_NET *373 0.00272293
*CONN
*I *1122:A1 I *D sky130_fd_sc_hd__a21oi_1
*I *957:A I *D sky130_fd_sc_hd__inv_2
*I *955:B I *D sky130_fd_sc_hd__and3b_1
*I *1099:A I *D sky130_fd_sc_hd__nand2_2
*I *1186:Q O *D sky130_fd_sc_hd__dfrtp_1
*CAP
1 *1122:A1 0.000108464
2 *957:A 2.9682e-05
3 *955:B 0.000191029
4 *1099:A 0
5 *1186:Q 0.000377309
6 *373:24 0.000430674
7 *373:18 0.000356619
8 *373:12 0.000573065
9 *955:A_N *955:B 0.000125547
10 *955:A_N *373:24 4.18603e-06
11 *956:A *955:B 0.000172084
12 *956:A *373:12 0
13 *956:A *373:24 5.53249e-06
14 *967:A1 *1122:A1 0.000159327
15 *1123:B *957:A 1.37328e-05
16 *1123:B *373:12 0
17 *1202:A *373:24 8.65905e-05
18 *125:10 *373:24 4.61744e-05
19 *129:10 *373:24 4.29107e-05
*RES
1 *1186:Q *373:12 8.025 
2 *373:12 *373:18 3.32 
3 *373:18 *373:24 5.555 
4 *373:24 *1099:A 3.6 
5 *373:24 *955:B 8.55 
6 *373:18 *957:A 2.215 
7 *373:12 *1122:A1 5.085 
*END

*D_NET *374 0.00306276
*CONN
*I *942:A I *D sky130_fd_sc_hd__and4_1
*I *1247:A I *D sky130_fd_sc_hd__dlygate4sd3_1
*I *964:A1 I *D sky130_fd_sc_hd__a22oi_1
*I *1187:Q O *D sky130_fd_sc_hd__dfrtp_1
*CAP
1 *942:A 7.69118e-05
2 *1247:A 0.000185308
3 *964:A1 0.000600565
4 *1187:Q 0
5 *374:17 0.000324937
6 *374:4 0.000663283
7 *942:C *942:A 9.01012e-05
8 *942:D *942:A 0.000161474
9 *964:A2 *964:A1 0.000123672
10 *964:B1 *964:A1 1.60668e-05
11 *1187:D *964:A1 0.000121039
12 *102:108 *1247:A 0.00030372
13 *115:14 *964:A1 0.000198651
14 *115:14 *374:17 3.51072e-05
15 *246:52 *942:A 2.87823e-05
16 *256:702 *1247:A 4.78564e-05
17 *355:61 *1247:A 8.52845e-05
*RES
1 *1187:Q *374:4 1.6 
2 *374:4 *964:A1 9.655 
3 *374:4 *374:17 1.155 
4 *374:17 *1247:A 10.07 
5 *374:17 *942:A 3.775 
*END

*D_NET *375 0.00399286
*CONN
*I *1248:A I *D sky130_fd_sc_hd__dlygate4sd3_1
*I *938:B1 I *D sky130_fd_sc_hd__o2111a_1
*I *964:B2 I *D sky130_fd_sc_hd__a22oi_1
*I *1188:Q O *D sky130_fd_sc_hd__dfrtp_1
*CAP
1 *1248:A 8.71318e-05
2 *938:B1 1.10473e-05
3 *964:B2 0.000879911
4 *1188:Q 0.000252069
5 *375:20 0.00111033
6 *375:10 0.000558575
7 *933:A *1248:A 0.000196048
8 *935:B1 *964:B2 1.79483e-05
9 *935:B1 *375:20 0.000198184
10 *935:C1 *375:10 4.66108e-05
11 *935:C1 *375:20 0
12 *938:A1 *375:20 8.74345e-06
13 *938:C1 *938:B1 4.77719e-05
14 *938:D1 *375:20 5.98118e-05
15 *1188:RESET_B *375:10 6.16762e-05
16 *93:219 *964:B2 3.75882e-06
17 *106:10 *375:20 9.776e-05
18 *129:59 *964:B2 1.88602e-05
19 *135:21 *964:B2 2.91134e-05
20 *239:22 *375:20 1.19928e-05
21 *253:40 *375:10 0.000137571
22 *253:40 *375:20 0.000138067
23 *362:27 *938:B1 1.9872e-05
*RES
1 *1188:Q *375:10 7.41 
2 *375:10 *375:20 9.265 
3 *375:20 *964:B2 6.7766 
4 *375:20 *938:B1 4.05 
5 *375:10 *1248:A 5.43 
*END

*D_NET *376 0.00105904
*CONN
*I *966:B1 I *D sky130_fd_sc_hd__o21ai_1
*I *1116:B1 I *D sky130_fd_sc_hd__o31a_1
*I *948:B1 I *D sky130_fd_sc_hd__o21ai_1
*I *1189:Q O *D sky130_fd_sc_hd__dfrtp_1
*CAP
1 *966:B1 8.26391e-05
2 *1116:B1 9.71884e-06
3 *948:B1 0.000148185
4 *1189:Q 0
5 *376:8 0.000202838
6 *376:4 0.000127573
7 *948:A1 *948:B1 4.89295e-05
8 *951:D1 *948:B1 0
9 *967:D1 *966:B1 5.13174e-06
10 *1116:A2 *948:B1 4.1652e-06
11 *1116:A2 *1116:B1 4.82919e-05
12 *1116:A2 *376:8 2.09283e-05
13 *93:219 *948:B1 0
14 *93:219 *376:8 0
15 *124:14 *948:B1 0.000133085
16 *130:10 *376:8 7.14241e-05
17 *130:18 *966:B1 5.83121e-06
18 *253:40 *948:B1 9.9033e-06
19 *253:40 *1116:B1 4.82919e-05
20 *253:40 *376:8 9.21064e-05
*RES
1 *1189:Q *376:4 1.6 
2 *376:4 *376:8 3.38 
3 *376:8 *948:B1 6.195 
4 *376:8 *1116:B1 4.05 
5 *376:4 *966:B1 2.92 
*END

*D_NET *377 0.00331875
*CONN
*I *960:A I *D sky130_fd_sc_hd__inv_2
*I *1119:B1 I *D sky130_fd_sc_hd__o31a_1
*I *944:B1 I *D sky130_fd_sc_hd__o21ai_1
*I *1190:Q O *D sky130_fd_sc_hd__dfrtp_1
*CAP
1 *960:A 3.36342e-05
2 *1119:B1 2.63842e-05
3 *944:B1 0.00022733
4 *1190:Q 0.000224959
5 *377:27 0.000373484
6 *377:8 0.000765755
7 *944:A1 *944:B1 2.0514e-05
8 *944:A2 *944:B1 8.8266e-05
9 *946:A *944:B1 0.000238919
10 *947:C1 *944:B1 7.04513e-05
11 *952:B *960:A 8.65961e-05
12 *961:A1 *377:27 1.1561e-05
13 *961:B1 *377:27 0.00014262
14 *1094:B1 *960:A 9.4087e-05
15 *1094:B1 *1119:B1 2.05056e-05
16 *1119:A3 *1119:B1 8.57024e-05
17 *1190:D *377:27 7.03219e-05
18 *99:69 *377:8 0.000173878
19 *116:18 *960:A 7.40446e-05
20 *116:18 *1119:B1 0.000122331
21 *239:55 *377:27 0.000221573
22 *239:59 *944:B1 0.000119498
23 *239:59 *377:27 2.63329e-05
*RES
1 *1190:Q *377:8 6.465 
2 *377:8 *944:B1 9.45 
3 *377:8 *377:27 9.29 
4 *377:27 *1119:B1 2.74 
5 *377:27 *960:A 3.085 
*END

*D_NET *378 0.000108504
*CONN
*I *924:A I *D sky130_fd_sc_hd__inv_2
*I *1191:Q O *D sky130_fd_sc_hd__dfrtp_1
*CAP
1 *924:A 3.9233e-05
2 *1191:Q 3.9233e-05
3 *97:8 *924:A 3.00381e-05
*RES
1 *1191:Q *924:A 4.01 
*END
