*SPEF "ieee 1481-1999"
*DESIGN "top"
*DATE "11:11:11 Fri 11 11, 1111"
*VENDOR "OpenRCX"
*PROGRAM "Parallel Extraction"
*VERSION "1.0"
*DESIGN_FLOW "NAME_SCOPE LOCAL" "PIN_CAP NONE"
*DIVIDER /
*DELIMITER :
*BUS_DELIMITER []
*T_UNIT 1 NS
*C_UNIT 1 PF
*R_UNIT 1 OHM
*L_UNIT 1 HENRY

*NAME_MAP
*3 clk
*4 i_valid
*5 i_value0[0]
*6 i_value0[1]
*7 i_value0[2]
*8 i_value1[0]
*9 i_value1[1]
*10 i_value1[2]
*11 i_value2[0]
*12 i_value2[1]
*13 i_value2[2]
*14 i_value3[0]
*15 i_value3[1]
*16 i_value3[2]
*17 i_value4[0]
*18 i_value4[1]
*19 i_value4[2]
*20 o_bucket[0]
*21 o_bucket[1]
*22 o_bucket[2]
*23 o_index[0]
*24 o_index[1]
*25 o_index[2]
*26 o_valid
*27 rst_n
*28 _000_
*29 _001_
*30 _002_
*31 _003_
*32 _004_
*33 _005_
*34 _006_
*35 _007_
*36 _008_
*37 _009_
*38 _010_
*39 _011_
*40 _012_
*41 _013_
*42 _014_
*43 _015_
*44 _016_
*45 _017_
*46 _018_
*47 _019_
*48 _020_
*49 _021_
*50 _022_
*51 _023_
*52 _024_
*53 _025_
*54 _026_
*55 _027_
*56 _028_
*57 _029_
*58 _030_
*59 _031_
*60 _032_
*61 _033_
*62 _034_
*63 _035_
*64 _036_
*65 _037_
*66 _038_
*67 _039_
*68 _040_
*69 _041_
*70 _042_
*71 _043_
*72 _044_
*73 _045_
*74 _046_
*75 _047_
*76 _048_
*77 _049_
*78 _050_
*79 _051_
*80 _052_
*81 _053_
*82 _054_
*83 _055_
*84 _056_
*85 _057_
*86 _058_
*87 _059_
*88 _060_
*89 _061_
*90 _062_
*91 _063_
*92 _064_
*93 _065_
*94 _066_
*95 _067_
*96 _068_
*97 _069_
*98 _070_
*99 _071_
*100 _072_
*101 _073_
*102 _074_
*103 _075_
*104 _076_
*105 _077_
*106 _078_
*107 _079_
*108 _080_
*109 _081_
*110 _082_
*111 _083_
*112 _084_
*113 _085_
*114 _086_
*115 _087_
*116 _088_
*117 _089_
*118 _090_
*119 _091_
*120 _092_
*121 _093_
*122 _094_
*123 _095_
*124 _096_
*125 _097_
*126 _098_
*127 _099_
*128 _100_
*129 _101_
*130 _102_
*131 _103_
*132 _104_
*133 _105_
*134 _106_
*135 _107_
*136 _108_
*137 _109_
*138 _110_
*139 _111_
*140 _112_
*141 _113_
*142 _114_
*143 _115_
*144 _116_
*145 _117_
*146 _118_
*147 _119_
*148 _120_
*149 _121_
*150 _122_
*151 _123_
*152 _124_
*153 _125_
*154 _126_
*155 _127_
*156 _128_
*157 _129_
*158 _130_
*159 _131_
*160 _132_
*161 _133_
*162 _134_
*163 _135_
*164 _136_
*165 _137_
*166 _138_
*167 _139_
*168 _140_
*169 _141_
*170 _142_
*171 _143_
*172 _144_
*173 _145_
*174 _146_
*175 _147_
*176 _148_
*177 _149_
*178 _150_
*179 _151_
*180 _152_
*181 _153_
*182 _154_
*183 _155_
*184 _156_
*185 _157_
*186 _158_
*187 _159_
*188 _160_
*189 _161_
*190 _162_
*191 _163_
*192 _164_
*193 _165_
*194 _166_
*195 _167_
*196 _168_
*197 _169_
*198 _170_
*199 _171_
*200 _172_
*201 _173_
*202 _174_
*203 _175_
*204 _176_
*205 _177_
*206 _178_
*207 _179_
*208 _180_
*209 _181_
*210 _182_
*211 _183_
*212 _184_
*213 _185_
*214 _186_
*215 _187_
*216 _188_
*217 _189_
*218 _190_
*219 _191_
*220 _192_
*221 _193_
*222 _194_
*223 _195_
*224 _196_
*225 _197_
*226 _198_
*227 _199_
*228 _200_
*229 _201_
*230 _202_
*231 _203_
*232 _204_
*233 _205_
*234 _206_
*235 _207_
*236 _208_
*237 _209_
*238 _210_
*239 clknet_0_clk
*240 clknet_3_0__leaf_clk
*241 clknet_3_1__leaf_clk
*242 clknet_3_2__leaf_clk
*243 clknet_3_3__leaf_clk
*244 clknet_3_4__leaf_clk
*245 clknet_3_5__leaf_clk
*246 clknet_3_6__leaf_clk
*247 clknet_3_7__leaf_clk
*248 net1
*249 net10
*250 net11
*251 net12
*252 net13
*253 net14
*254 net15
*255 net16
*256 net17
*257 net18
*258 net19
*259 net2
*260 net20
*261 net21
*262 net22
*263 net23
*264 net24
*265 net25
*266 net26
*267 net27
*268 net28
*269 net29
*270 net3
*271 net30
*272 net31
*273 net32
*274 net33
*275 net34
*276 net35
*277 net36
*278 net37
*279 net38
*280 net39
*281 net4
*282 net40
*283 net41
*284 net42
*285 net43
*286 net44
*287 net45
*288 net46
*289 net47
*290 net48
*291 net49
*292 net5
*293 net50
*294 net51
*295 net52
*296 net53
*297 net54
*298 net55
*299 net56
*300 net57
*301 net58
*302 net59
*303 net6
*304 net60
*305 net61
*306 net62
*307 net63
*308 net64
*309 net65
*310 net66
*311 net67
*312 net68
*313 net69
*314 net7
*315 net70
*316 net71
*317 net72
*318 net73
*319 net8
*320 net9
*321 u_am0\.b_i\[0\]
*322 u_am0\.b_i\[1\]
*323 u_am0\.b_i\[2\]
*324 u_am0\.i_index\[0\]
*325 u_am0\.i_index\[1\]
*326 u_am0\.i_index\[2\]
*327 u_am0\.max\[0\]
*328 u_am0\.max\[1\]
*329 u_am0\.max\[2\]
*330 u_am1\.b_i\[0\]
*331 u_am1\.b_i\[1\]
*332 u_am1\.b_i\[2\]
*333 u_am1\.max\[0\]
*334 u_am1\.max\[1\]
*335 u_am1\.max\[2\]
*336 u_am2\.b_i\[0\]
*337 u_am2\.b_i\[1\]
*338 u_am2\.b_i\[2\]
*339 u_am2\.max\[0\]
*340 u_am2\.max\[1\]
*341 u_am2\.max\[2\]
*342 u_am3\.b_i\[0\]
*343 u_am3\.b_i\[1\]
*344 u_am3\.b_i\[2\]
*345 u_am3\.max\[0\]
*346 u_am3\.max\[1\]
*347 u_am3\.max\[2\]
*348 u_am4\.b_i\[0\]
*349 u_am4\.b_i\[1\]
*350 u_am4\.b_i\[2\]
*351 u_am4\.max\[0\]
*352 u_am4\.max\[1\]
*353 u_am4\.max\[2\]
*354 u_control\.o_start_sort
*355 u_sort\.bucket_counter\[0\]
*356 u_sort\.bucket_counter\[1\]
*357 u_sort\.bucket_counter\[2\]
*358 u_sort\.bucket_reg\[0\]\[0\]
*359 u_sort\.bucket_reg\[0\]\[1\]
*360 u_sort\.bucket_reg\[0\]\[2\]
*361 u_sort\.bucket_reg\[1\]\[0\]
*362 u_sort\.bucket_reg\[1\]\[1\]
*363 u_sort\.bucket_reg\[1\]\[2\]
*364 u_sort\.bucket_reg\[2\]\[0\]
*365 u_sort\.bucket_reg\[2\]\[1\]
*366 u_sort\.bucket_reg\[2\]\[2\]
*367 u_sort\.bucket_reg\[3\]\[0\]
*368 u_sort\.bucket_reg\[3\]\[1\]
*369 u_sort\.bucket_reg\[3\]\[2\]
*370 u_sort\.bucket_reg\[4\]\[0\]
*371 u_sort\.bucket_reg\[4\]\[1\]
*372 u_sort\.bucket_reg\[4\]\[2\]
*373 u_sort\.busy
*374 u_sort\.valid_reg\[0\]
*375 u_sort\.valid_reg\[1\]
*376 u_sort\.valid_reg\[2\]
*377 u_sort\.valid_reg\[3\]
*378 u_sort\.valid_reg\[4\]
*379 FILLER_0_0_102
*380 FILLER_0_0_110
*381 FILLER_0_0_119
*382 FILLER_0_0_123
*383 FILLER_0_0_138
*384 FILLER_0_0_144
*385 FILLER_0_0_156
*386 FILLER_0_0_160
*387 FILLER_0_0_169
*388 FILLER_0_0_23
*389 FILLER_0_0_27
*390 FILLER_0_0_29
*391 FILLER_0_0_45
*392 FILLER_0_0_6
*393 FILLER_0_0_60
*394 FILLER_0_0_64
*395 FILLER_0_0_73
*396 FILLER_0_0_82
*397 FILLER_0_0_85
*398 FILLER_0_0_90
*399 FILLER_0_10_102
*400 FILLER_0_10_110
*401 FILLER_0_10_119
*402 FILLER_0_10_131
*403 FILLER_0_10_139
*404 FILLER_0_10_141
*405 FILLER_0_10_145
*406 FILLER_0_10_154
*407 FILLER_0_10_166
*408 FILLER_0_10_174
*409 FILLER_0_10_23
*410 FILLER_0_10_70
*411 FILLER_0_10_82
*412 FILLER_0_11_110
*413 FILLER_0_11_113
*414 FILLER_0_11_121
*415 FILLER_0_11_126
*416 FILLER_0_11_134
*417 FILLER_0_11_15
*418 FILLER_0_11_162
*419 FILLER_0_11_169
*420 FILLER_0_11_3
*421 FILLER_0_11_48
*422 FILLER_0_11_57
*423 FILLER_0_11_69
*424 FILLER_0_11_77
*425 FILLER_0_11_98
*426 FILLER_0_12_134
*427 FILLER_0_12_139
*428 FILLER_0_12_15
*429 FILLER_0_12_161
*430 FILLER_0_12_173
*431 FILLER_0_12_27
*432 FILLER_0_12_29
*433 FILLER_0_12_3
*434 FILLER_0_12_71
*435 FILLER_0_12_82
*436 FILLER_0_12_85
*437 FILLER_0_12_91
*438 FILLER_0_12_97
*439 FILLER_0_13_111
*440 FILLER_0_13_130
*441 FILLER_0_13_138
*442 FILLER_0_13_15
*443 FILLER_0_13_159
*444 FILLER_0_13_167
*445 FILLER_0_13_169
*446 FILLER_0_13_19
*447 FILLER_0_13_3
*448 FILLER_0_13_40
*449 FILLER_0_13_46
*450 FILLER_0_13_82
*451 FILLER_0_13_99
*452 FILLER_0_14_100
*453 FILLER_0_14_134
*454 FILLER_0_14_141
*455 FILLER_0_14_145
*456 FILLER_0_14_157
*457 FILLER_0_14_38
*458 FILLER_0_14_50
*459 FILLER_0_14_6
*460 FILLER_0_14_62
*461 FILLER_0_14_69
*462 FILLER_0_14_85
*463 FILLER_0_15_105
*464 FILLER_0_15_136
*465 FILLER_0_15_148
*466 FILLER_0_15_15
*467 FILLER_0_15_160
*468 FILLER_0_15_169
*469 FILLER_0_15_19
*470 FILLER_0_15_3
*471 FILLER_0_15_55
*472 FILLER_0_15_62
*473 FILLER_0_15_72
*474 FILLER_0_16_100
*475 FILLER_0_16_112
*476 FILLER_0_16_124
*477 FILLER_0_16_136
*478 FILLER_0_16_141
*479 FILLER_0_16_15
*480 FILLER_0_16_165
*481 FILLER_0_16_173
*482 FILLER_0_16_23
*483 FILLER_0_16_27
*484 FILLER_0_16_29
*485 FILLER_0_16_3
*486 FILLER_0_16_41
*487 FILLER_0_16_49
*488 FILLER_0_16_74
*489 FILLER_0_16_82
*490 FILLER_0_17_113
*491 FILLER_0_17_125
*492 FILLER_0_17_158
*493 FILLER_0_17_167
*494 FILLER_0_17_169
*495 FILLER_0_17_20
*496 FILLER_0_17_3
*497 FILLER_0_17_32
*498 FILLER_0_17_44
*499 FILLER_0_17_60
*500 FILLER_0_17_7
*501 FILLER_0_17_72
*502 FILLER_0_17_84
*503 FILLER_0_18_101
*504 FILLER_0_18_120
*505 FILLER_0_18_128
*506 FILLER_0_18_138
*507 FILLER_0_18_156
*508 FILLER_0_18_165
*509 FILLER_0_18_23
*510 FILLER_0_18_27
*511 FILLER_0_18_60
*512 FILLER_0_18_68
*513 FILLER_0_18_79
*514 FILLER_0_18_83
*515 FILLER_0_18_85
*516 FILLER_0_18_93
*517 FILLER_0_19_169
*518 FILLER_0_19_3
*519 FILLER_0_19_57
*520 FILLER_0_19_69
*521 FILLER_0_19_7
*522 FILLER_0_19_77
*523 FILLER_0_19_81
*524 FILLER_0_1_133
*525 FILLER_0_1_154
*526 FILLER_0_1_166
*527 FILLER_0_1_169
*528 FILLER_0_1_37
*529 FILLER_0_1_54
*530 FILLER_0_1_66
*531 FILLER_0_20_121
*532 FILLER_0_20_133
*533 FILLER_0_20_139
*534 FILLER_0_20_17
*535 FILLER_0_20_170
*536 FILLER_0_20_21
*537 FILLER_0_20_27
*538 FILLER_0_20_38
*539 FILLER_0_20_44
*540 FILLER_0_20_83
*541 FILLER_0_20_89
*542 FILLER_0_20_9
*543 FILLER_0_20_99
*544 FILLER_0_21_103
*545 FILLER_0_21_11
*546 FILLER_0_21_113
*547 FILLER_0_21_118
*548 FILLER_0_21_129
*549 FILLER_0_21_150
*550 FILLER_0_21_164
*551 FILLER_0_21_169
*552 FILLER_0_21_3
*553 FILLER_0_21_41
*554 FILLER_0_21_51
*555 FILLER_0_21_55
*556 FILLER_0_21_63
*557 FILLER_0_21_69
*558 FILLER_0_21_86
*559 FILLER_0_21_90
*560 FILLER_0_21_95
*561 FILLER_0_22_128
*562 FILLER_0_22_136
*563 FILLER_0_22_15
*564 FILLER_0_22_150
*565 FILLER_0_22_161
*566 FILLER_0_22_173
*567 FILLER_0_22_23
*568 FILLER_0_22_3
*569 FILLER_0_22_49
*570 FILLER_0_22_56
*571 FILLER_0_22_85
*572 FILLER_0_23_102
*573 FILLER_0_23_110
*574 FILLER_0_23_113
*575 FILLER_0_23_122
*576 FILLER_0_23_14
*577 FILLER_0_23_161
*578 FILLER_0_23_167
*579 FILLER_0_23_169
*580 FILLER_0_23_24
*581 FILLER_0_23_3
*582 FILLER_0_23_65
*583 FILLER_0_23_77
*584 FILLER_0_23_86
*585 FILLER_0_23_98
*586 FILLER_0_24_105
*587 FILLER_0_24_133
*588 FILLER_0_24_139
*589 FILLER_0_24_150
*590 FILLER_0_24_25
*591 FILLER_0_24_3
*592 FILLER_0_24_37
*593 FILLER_0_24_70
*594 FILLER_0_24_82
*595 FILLER_0_24_85
*596 FILLER_0_24_93
*597 FILLER_0_25_106
*598 FILLER_0_25_113
*599 FILLER_0_25_121
*600 FILLER_0_25_129
*601 FILLER_0_25_167
*602 FILLER_0_25_169
*603 FILLER_0_25_21
*604 FILLER_0_25_33
*605 FILLER_0_25_43
*606 FILLER_0_25_48
*607 FILLER_0_25_52
*608 FILLER_0_25_77
*609 FILLER_0_25_9
*610 FILLER_0_26_118
*611 FILLER_0_26_130
*612 FILLER_0_26_134
*613 FILLER_0_26_138
*614 FILLER_0_26_15
*615 FILLER_0_26_152
*616 FILLER_0_26_164
*617 FILLER_0_26_23
*618 FILLER_0_26_3
*619 FILLER_0_26_57
*620 FILLER_0_26_69
*621 FILLER_0_26_81
*622 FILLER_0_26_85
*623 FILLER_0_26_97
*624 FILLER_0_27_113
*625 FILLER_0_27_121
*626 FILLER_0_27_127
*627 FILLER_0_27_141
*628 FILLER_0_27_15
*629 FILLER_0_27_164
*630 FILLER_0_27_169
*631 FILLER_0_27_27
*632 FILLER_0_27_3
*633 FILLER_0_27_31
*634 FILLER_0_27_52
*635 FILLER_0_27_66
*636 FILLER_0_27_78
*637 FILLER_0_27_82
*638 FILLER_0_28_105
*639 FILLER_0_28_137
*640 FILLER_0_28_141
*641 FILLER_0_28_147
*642 FILLER_0_28_168
*643 FILLER_0_28_174
*644 FILLER_0_28_24
*645 FILLER_0_28_3
*646 FILLER_0_29_100
*647 FILLER_0_29_107
*648 FILLER_0_29_111
*649 FILLER_0_29_113
*650 FILLER_0_29_12
*651 FILLER_0_29_125
*652 FILLER_0_29_133
*653 FILLER_0_29_139
*654 FILLER_0_29_149
*655 FILLER_0_29_156
*656 FILLER_0_29_24
*657 FILLER_0_29_29
*658 FILLER_0_29_37
*659 FILLER_0_29_41
*660 FILLER_0_29_51
*661 FILLER_0_29_55
*662 FILLER_0_29_64
*663 FILLER_0_29_82
*664 FILLER_0_29_85
*665 FILLER_0_29_91
*666 FILLER_0_2_106
*667 FILLER_0_2_114
*668 FILLER_0_2_120
*669 FILLER_0_2_15
*670 FILLER_0_2_161
*671 FILLER_0_2_173
*672 FILLER_0_2_23
*673 FILLER_0_2_3
*674 FILLER_0_2_69
*675 FILLER_0_2_79
*676 FILLER_0_2_95
*677 FILLER_0_3_141
*678 FILLER_0_3_15
*679 FILLER_0_3_151
*680 FILLER_0_3_161
*681 FILLER_0_3_167
*682 FILLER_0_3_169
*683 FILLER_0_3_27
*684 FILLER_0_3_3
*685 FILLER_0_3_42
*686 FILLER_0_3_54
*687 FILLER_0_3_57
*688 FILLER_0_3_83
*689 FILLER_0_4_11
*690 FILLER_0_4_123
*691 FILLER_0_4_131
*692 FILLER_0_4_136
*693 FILLER_0_4_141
*694 FILLER_0_4_149
*695 FILLER_0_4_154
*696 FILLER_0_4_166
*697 FILLER_0_4_174
*698 FILLER_0_4_19
*699 FILLER_0_4_3
*700 FILLER_0_4_37
*701 FILLER_0_4_55
*702 FILLER_0_4_79
*703 FILLER_0_4_83
*704 FILLER_0_4_85
*705 FILLER_0_4_91
*706 FILLER_0_5_122
*707 FILLER_0_5_156
*708 FILLER_0_5_169
*709 FILLER_0_5_26
*710 FILLER_0_5_3
*711 FILLER_0_5_49
*712 FILLER_0_5_55
*713 FILLER_0_5_57
*714 FILLER_0_5_65
*715 FILLER_0_5_79
*716 FILLER_0_5_91
*717 FILLER_0_6_100
*718 FILLER_0_6_121
*719 FILLER_0_6_131
*720 FILLER_0_6_139
*721 FILLER_0_6_141
*722 FILLER_0_6_15
*723 FILLER_0_6_153
*724 FILLER_0_6_165
*725 FILLER_0_6_173
*726 FILLER_0_6_19
*727 FILLER_0_6_27
*728 FILLER_0_6_3
*729 FILLER_0_6_32
*730 FILLER_0_6_40
*731 FILLER_0_6_94
*732 FILLER_0_7_101
*733 FILLER_0_7_105
*734 FILLER_0_7_113
*735 FILLER_0_7_12
*736 FILLER_0_7_142
*737 FILLER_0_7_148
*738 FILLER_0_7_160
*739 FILLER_0_7_169
*740 FILLER_0_7_20
*741 FILLER_0_7_38
*742 FILLER_0_7_44
*743 FILLER_0_7_54
*744 FILLER_0_7_57
*745 FILLER_0_8_159
*746 FILLER_0_8_169
*747 FILLER_0_8_26
*748 FILLER_0_8_40
*749 FILLER_0_8_72
*750 FILLER_0_8_96
*751 FILLER_0_9_105
*752 FILLER_0_9_11
*753 FILLER_0_9_111
*754 FILLER_0_9_113
*755 FILLER_0_9_125
*756 FILLER_0_9_167
*757 FILLER_0_9_169
*758 FILLER_0_9_3
*759 FILLER_0_9_53
*760 FILLER_0_9_72
*761 FILLER_0_9_81
*762 FILLER_0_9_93
*763 PHY_0
*764 PHY_1
*765 PHY_10
*766 PHY_11
*767 PHY_12
*768 PHY_13
*769 PHY_14
*770 PHY_15
*771 PHY_16
*772 PHY_17
*773 PHY_18
*774 PHY_19
*775 PHY_2
*776 PHY_20
*777 PHY_21
*778 PHY_22
*779 PHY_23
*780 PHY_24
*781 PHY_25
*782 PHY_26
*783 PHY_27
*784 PHY_28
*785 PHY_29
*786 PHY_3
*787 PHY_30
*788 PHY_31
*789 PHY_32
*790 PHY_33
*791 PHY_34
*792 PHY_35
*793 PHY_36
*794 PHY_37
*795 PHY_38
*796 PHY_39
*797 PHY_4
*798 PHY_40
*799 PHY_41
*800 PHY_42
*801 PHY_43
*802 PHY_44
*803 PHY_45
*804 PHY_46
*805 PHY_47
*806 PHY_48
*807 PHY_49
*808 PHY_5
*809 PHY_50
*810 PHY_51
*811 PHY_52
*812 PHY_53
*813 PHY_54
*814 PHY_55
*815 PHY_56
*816 PHY_57
*817 PHY_58
*818 PHY_59
*819 PHY_6
*820 PHY_7
*821 PHY_8
*822 PHY_9
*823 TAP_100
*824 TAP_101
*825 TAP_102
*826 TAP_103
*827 TAP_104
*828 TAP_105
*829 TAP_106
*830 TAP_107
*831 TAP_108
*832 TAP_109
*833 TAP_110
*834 TAP_111
*835 TAP_112
*836 TAP_113
*837 TAP_114
*838 TAP_115
*839 TAP_116
*840 TAP_117
*841 TAP_118
*842 TAP_119
*843 TAP_120
*844 TAP_121
*845 TAP_122
*846 TAP_123
*847 TAP_124
*848 TAP_125
*849 TAP_126
*850 TAP_127
*851 TAP_128
*852 TAP_129
*853 TAP_130
*854 TAP_131
*855 TAP_132
*856 TAP_133
*857 TAP_134
*858 TAP_135
*859 TAP_136
*860 TAP_137
*861 TAP_138
*862 TAP_139
*863 TAP_140
*864 TAP_141
*865 TAP_142
*866 TAP_143
*867 TAP_144
*868 TAP_145
*869 TAP_146
*870 TAP_147
*871 TAP_148
*872 TAP_149
*873 TAP_150
*874 TAP_151
*875 TAP_152
*876 TAP_153
*877 TAP_154
*878 TAP_155
*879 TAP_60
*880 TAP_61
*881 TAP_62
*882 TAP_63
*883 TAP_64
*884 TAP_65
*885 TAP_66
*886 TAP_67
*887 TAP_68
*888 TAP_69
*889 TAP_70
*890 TAP_71
*891 TAP_72
*892 TAP_73
*893 TAP_74
*894 TAP_75
*895 TAP_76
*896 TAP_77
*897 TAP_78
*898 TAP_79
*899 TAP_80
*900 TAP_81
*901 TAP_82
*902 TAP_83
*903 TAP_84
*904 TAP_85
*905 TAP_86
*906 TAP_87
*907 TAP_88
*908 TAP_89
*909 TAP_90
*910 TAP_91
*911 TAP_92
*912 TAP_93
*913 TAP_94
*914 TAP_95
*915 TAP_96
*916 TAP_97
*917 TAP_98
*918 TAP_99
*919 _211_
*920 _212_
*921 _213_
*922 _214_
*923 _215_
*924 _216_
*925 _217_
*926 _218_
*927 _219_
*928 _220_
*929 _221_
*930 _222_
*931 _223_
*932 _224_
*933 _225_
*934 _226_
*935 _227_
*936 _228_
*937 _229_
*938 _230_
*939 _231_
*940 _232_
*941 _233_
*942 _234_
*943 _235_
*944 _236_
*945 _237_
*946 _238_
*947 _239_
*948 _240_
*949 _241_
*950 _242_
*951 _243_
*952 _244_
*953 _245_
*954 _246_
*955 _247_
*956 _248_
*957 _249_
*958 _250_
*959 _251_
*960 _252_
*961 _253_
*962 _254_
*963 _255_
*964 _256_
*965 _257_
*966 _258_
*967 _259_
*968 _260_
*969 _261_
*970 _262_
*971 _263_
*972 _264_
*973 _265_
*974 _266_
*975 _267_
*976 _268_
*977 _269_
*978 _270_
*979 _271_
*980 _272_
*981 _273_
*982 _274_
*983 _275_
*984 _276_
*985 _277_
*986 _278_
*987 _279_
*988 _280_
*989 _281_
*990 _282_
*991 _283_
*992 _284_
*993 _285_
*994 _286_
*995 _287_
*996 _288_
*997 _289_
*998 _290_
*999 _291_
*1000 _292_
*1001 _293_
*1002 _294_
*1003 _295_
*1004 _296_
*1005 _297_
*1006 _298_
*1007 _299_
*1008 _300_
*1009 _301_
*1010 _302_
*1011 _303_
*1012 _304_
*1013 _305_
*1014 _306_
*1015 _307_
*1016 _308_
*1017 _309_
*1018 _310_
*1019 _311_
*1020 _312_
*1021 _313_
*1022 _314_
*1023 _315_
*1024 _316_
*1025 _317_
*1026 _318_
*1027 _319_
*1028 _320_
*1029 _321_
*1030 _322_
*1031 _323_
*1032 _324_
*1033 _325_
*1034 _326_
*1035 _327_
*1036 _328_
*1037 _329_
*1038 _330_
*1039 _331_
*1040 _332_
*1041 _333_
*1042 _334_
*1043 _335_
*1044 _336_
*1045 _337_
*1046 _338_
*1047 _339_
*1048 _340_
*1049 _341_
*1050 _342_
*1051 _343_
*1052 _344_
*1053 _345_
*1054 _346_
*1055 _347_
*1056 _348_
*1057 _349_
*1058 _350_
*1059 _351_
*1060 _352_
*1061 _353_
*1062 _354_
*1063 _355_
*1064 _356_
*1065 _357_
*1066 _358_
*1067 _359_
*1068 _360_
*1069 _361_
*1070 _362_
*1071 _363_
*1072 _364_
*1073 _365_
*1074 _366_
*1075 _367_
*1076 _368_
*1077 _369_
*1078 _370_
*1079 _371_
*1080 _372_
*1081 _373_
*1082 _374_
*1083 _375_
*1084 _376_
*1085 _377_
*1086 _378_
*1087 _379_
*1088 _380_
*1089 _381_
*1090 _382_
*1091 _383_
*1092 _384_
*1093 _385_
*1094 _386_
*1095 _387_
*1096 _388_
*1097 _389_
*1098 _390_
*1099 _391_
*1100 _392_
*1101 _393_
*1102 _394_
*1103 _395_
*1104 _396_
*1105 _397_
*1106 _398_
*1107 _399_
*1108 _400_
*1109 _401_
*1110 _402_
*1111 _403_
*1112 _404_
*1113 _405_
*1114 _406_
*1115 _407_
*1116 _408_
*1117 _409_
*1118 _410_
*1119 _411_
*1120 _412_
*1121 _413_
*1122 _414_
*1123 _415_
*1124 _416_
*1125 _417_
*1126 _418_
*1127 _419_
*1128 _420_
*1129 _421_
*1130 _422_
*1131 _423_
*1132 _424_
*1133 _425_
*1134 _426_
*1135 _427_
*1136 _428_
*1137 _429_
*1138 _430_
*1139 _431_
*1140 _432_
*1141 _433_
*1142 _434_
*1143 _435_
*1144 _436_
*1145 _437_
*1146 _438_
*1147 _439_
*1148 _440_
*1149 _441_
*1150 _442_
*1151 _443_
*1152 _444_
*1153 _445_
*1154 _446_
*1155 _447_
*1156 _448_
*1157 _449_
*1158 _450_
*1159 _451_
*1160 _452_
*1161 _453_
*1162 _454_
*1163 _455_
*1164 _456_
*1165 _457_
*1166 _458_
*1167 _459_
*1168 _460_
*1169 _461_
*1170 _462_
*1171 _463_
*1172 _464_
*1173 _465_
*1174 _466_
*1175 _467_
*1176 _468_
*1177 _469_
*1178 _470_
*1179 _471_
*1180 _472_
*1181 _473_
*1182 _474_
*1183 _475_
*1184 _476_
*1185 _477_
*1186 _478_
*1187 _479_
*1188 _480_
*1189 _481_
*1190 _482_
*1191 _483_
*1192 _484_
*1193 _485_
*1194 _486_
*1195 clkbuf_0_clk
*1196 clkbuf_3_0__f_clk
*1197 clkbuf_3_1__f_clk
*1198 clkbuf_3_2__f_clk
*1199 clkbuf_3_3__f_clk
*1200 clkbuf_3_4__f_clk
*1201 clkbuf_3_5__f_clk
*1202 clkbuf_3_6__f_clk
*1203 clkbuf_3_7__f_clk
*1204 hold1
*1205 hold10
*1206 hold11
*1207 hold12
*1208 hold13
*1209 hold14
*1210 hold15
*1211 hold16
*1212 hold17
*1213 hold18
*1214 hold19
*1215 hold2
*1216 hold20
*1217 hold21
*1218 hold22
*1219 hold23
*1220 hold24
*1221 hold25
*1222 hold26
*1223 hold27
*1224 hold28
*1225 hold29
*1226 hold3
*1227 hold30
*1228 hold31
*1229 hold32
*1230 hold33
*1231 hold34
*1232 hold35
*1233 hold36
*1234 hold37
*1235 hold38
*1236 hold39
*1237 hold4
*1238 hold40
*1239 hold41
*1240 hold42
*1241 hold43
*1242 hold44
*1243 hold45
*1244 hold46
*1245 hold47
*1246 hold5
*1247 hold6
*1248 hold7
*1249 hold8
*1250 hold9
*1251 input1
*1252 input10
*1253 input11
*1254 input12
*1255 input13
*1256 input14
*1257 input15
*1258 input16
*1259 input17
*1260 input2
*1261 input3
*1262 input4
*1263 input5
*1264 input6
*1265 input7
*1266 input8
*1267 input9
*1268 max_cap25
*1269 output18
*1270 output19
*1271 output20
*1272 output21
*1273 output22
*1274 output23
*1275 output24
*1276 wire26

*PORTS
clk I
i_valid I
i_value0[0] I
i_value0[1] I
i_value0[2] I
i_value1[0] I
i_value1[1] I
i_value1[2] I
i_value2[0] I
i_value2[1] I
i_value2[2] I
i_value3[0] I
i_value3[1] I
i_value3[2] I
i_value4[0] I
i_value4[1] I
i_value4[2] I
o_bucket[0] O
o_bucket[1] O
o_bucket[2] O
o_index[0] O
o_index[1] O
o_index[2] O
o_valid O
rst_n I

*D_NET *3 0.00957105
*CONN
*P clk I
*I *1195:A I *D sky130_fd_sc_hd__clkbuf_16
*CAP
1 clk 0.00467408
2 *1195:A 0.00467408
3 *1195:A *1124:A 0
4 *1195:A *1202:A 0.000222885
5 *1195:A *213:20 0
*RES
1 clk *1195:A 36.0128 
*END

*D_NET *4 0.000512829
*CONN
*P i_valid I
*I *1251:A I *D sky130_fd_sc_hd__clkbuf_1
*CAP
1 i_valid 0.000256414
2 *1251:A 0.000256414
3 *1251:A *1144:CLK 0
*RES
1 i_valid *1251:A 20.2447 
*END

*D_NET *5 0.000944223
*CONN
*P i_value0[0] I
*I *1260:A I *D sky130_fd_sc_hd__buf_1
*CAP
1 i_value0[0] 0.000443538
2 *1260:A 0.000443538
3 *1260:A *314:14 5.71472e-05
*RES
1 i_value0[0] *1260:A 22.5679 
*END

*D_NET *6 0.00121969
*CONN
*P i_value0[1] I
*I *1261:A I *D sky130_fd_sc_hd__buf_1
*CAP
1 i_value0[1] 0.000609845
2 *1261:A 0.000609845
3 *1261:A *1257:A 0
*RES
1 i_value0[1] *1261:A 25.5321 
*END

*D_NET *7 0.001135
*CONN
*P i_value0[2] I
*I *1262:A I *D sky130_fd_sc_hd__buf_1
*CAP
1 i_value0[2] 0.000496561
2 *1262:A 0.000496561
3 *1262:A *1237:A 0
4 *1262:A *1265:A 8.47274e-05
5 *1262:A *314:14 5.71472e-05
*RES
1 i_value0[2] *1262:A 24.8709 
*END

*D_NET *8 0.000910769
*CONN
*P i_value1[0] I
*I *1263:A I *D sky130_fd_sc_hd__clkbuf_1
*CAP
1 i_value1[0] 0.000455384
2 *1263:A 0.000455384
*RES
1 i_value1[0] *1263:A 22.5679 
*END

*D_NET *9 0.00063785
*CONN
*P i_value1[1] I
*I *1264:A I *D sky130_fd_sc_hd__buf_1
*CAP
1 i_value1[1] 0.000318925
2 *1264:A 0.000318925
3 *1264:A *1154:D 0
*RES
1 i_value1[1] *1264:A 19.9443 
*END

*D_NET *10 0.00111855
*CONN
*P i_value1[2] I
*I *1265:A I *D sky130_fd_sc_hd__buf_1
*CAP
1 i_value1[2] 0.000508193
2 *1265:A 0.000508193
3 *1265:A *314:14 1.74352e-05
4 *1262:A *1265:A 8.47274e-05
*RES
1 i_value1[2] *1265:A 23.925 
*END

*D_NET *11 0.00124691
*CONN
*P i_value2[0] I
*I *1266:A I *D sky130_fd_sc_hd__buf_1
*CAP
1 i_value2[0] 0.00060405
2 *1266:A 0.00060405
3 *1266:A o_valid 3.88139e-05
*RES
1 i_value2[0] *1266:A 25.1571 
*END

*D_NET *12 0.00119463
*CONN
*P i_value2[1] I
*I *1267:A I *D sky130_fd_sc_hd__buf_1
*CAP
1 i_value2[1] 0.000407777
2 *1267:A 0.000407777
3 *1267:A *250:14 7.77751e-05
4 *1267:A *255:20 7.83659e-05
5 *1267:A *255:22 0.000142856
6 *1267:A *320:16 8.00806e-05
*RES
1 i_value2[1] *1267:A 22.6571 
*END

*D_NET *13 0.000573388
*CONN
*P i_value2[2] I
*I *1252:A I *D sky130_fd_sc_hd__buf_1
*CAP
1 i_value2[2] 0.000286694
2 *1252:A 0.000286694
3 *1252:A *1254:A 0
*RES
1 i_value2[2] *1252:A 20.8518 
*END

*D_NET *14 0.000955163
*CONN
*P i_value3[0] I
*I *1253:A I *D sky130_fd_sc_hd__buf_1
*CAP
1 i_value3[0] 0.000463376
2 *1253:A 0.000463376
3 *1253:A *250:14 2.84109e-05
*RES
1 i_value3[0] *1253:A 22.6571 
*END

*D_NET *15 0.00143417
*CONN
*P i_value3[1] I
*I *1254:A I *D sky130_fd_sc_hd__buf_1
*CAP
1 i_value3[1] 0.000717087
2 *1254:A 0.000717087
3 *1252:A *1254:A 0
*RES
1 i_value3[1] *1254:A 27.5857 
*END

*D_NET *16 0.00100626
*CONN
*P i_value3[2] I
*I *1255:A I *D sky130_fd_sc_hd__buf_1
*CAP
1 i_value3[2] 0.000475179
2 *1255:A 0.000475179
3 *1255:A *1036:A1 5.59013e-05
*RES
1 i_value3[2] *1255:A 23.1929 
*END

*D_NET *17 0.001327
*CONN
*P i_value4[0] I
*I *1256:A I *D sky130_fd_sc_hd__buf_1
*CAP
1 i_value4[0] 0.000555683
2 *1256:A 0.000555683
3 *1256:A *1204:A 0.000143375
4 *1256:A *314:22 7.22626e-05
*RES
1 i_value4[0] *1256:A 25.2821 
*END

*D_NET *18 0.000585819
*CONN
*P i_value4[1] I
*I *1257:A I *D sky130_fd_sc_hd__buf_1
*CAP
1 i_value4[1] 0.000292909
2 *1257:A 0.000292909
3 *1257:A *254:10 0
4 *1257:A *270:10 0
5 *1261:A *1257:A 0
*RES
1 i_value4[1] *1257:A 20.6382 
*END

*D_NET *19 0.0012377
*CONN
*P i_value4[2] I
*I *1258:A I *D sky130_fd_sc_hd__buf_1
*CAP
1 i_value4[2] 0.000520016
2 *1258:A 0.000520016
3 *1258:A *1028:A 6.20656e-05
4 *1258:A *1029:B1 1.21289e-05
5 *1258:A *1029:C1 2.44318e-05
6 *1258:A *1033:A 9.90431e-05
7 *1258:A *252:23 0
8 *1258:A *255:20 0
*RES
1 i_value4[2] *1258:A 24.0143 
*END

*D_NET *20 0.000595094
*CONN
*P o_bucket[0] O
*I *1269:X O *D sky130_fd_sc_hd__buf_2
*CAP
1 o_bucket[0] 0.000264204
2 *1269:X 0.000264204
3 o_bucket[0] *1269:A 6.66856e-05
*RES
1 *1269:X o_bucket[0] 18.8021 
*END

*D_NET *21 0.000636722
*CONN
*P o_bucket[1] O
*I *1270:X O *D sky130_fd_sc_hd__buf_2
*CAP
1 o_bucket[1] 0.000303062
2 *1270:X 0.000303062
3 o_bucket[1] *258:8 3.05988e-05
*RES
1 *1270:X o_bucket[1] 18.8741 
*END

*D_NET *22 0.000673324
*CONN
*P o_bucket[2] O
*I *1271:X O *D sky130_fd_sc_hd__clkbuf_4
*CAP
1 o_bucket[2] 0.000336662
2 *1271:X 0.000336662
3 o_bucket[2] *260:12 0
*RES
1 *1271:X o_bucket[2] 20.9589 
*END

*D_NET *23 0.00120777
*CONN
*P o_index[0] O
*I *1272:X O *D sky130_fd_sc_hd__buf_2
*CAP
1 o_index[0] 0.000541269
2 *1272:X 0.000541269
3 o_index[0] *1234:A 8.07313e-05
4 o_index[0] *261:12 2.89016e-05
5 o_index[0] *314:14 1.56e-05
*RES
1 *1272:X o_index[0] 23.4786 
*END

*D_NET *24 0.00187422
*CONN
*P o_index[1] O
*I *1273:X O *D sky130_fd_sc_hd__clkbuf_4
*CAP
1 o_index[1] 0.000755189
2 *1273:X 0.000755189
3 o_index[1] *255:35 0.000363837
*RES
1 *1273:X o_index[1] 26.2821 
*END

*D_NET *25 0.000572194
*CONN
*P o_index[2] O
*I *1274:X O *D sky130_fd_sc_hd__clkbuf_4
*CAP
1 o_index[2] 0.000286097
2 *1274:X 0.000286097
3 o_index[2] *1274:A 0
*RES
1 *1274:X o_index[2] 20.8518 
*END

*D_NET *26 0.00117279
*CONN
*P o_valid O
*I *1275:X O *D sky130_fd_sc_hd__clkbuf_4
*CAP
1 o_valid 0.000566986
2 *1275:X 0.000566986
3 o_valid *1275:A 0
4 *1266:A o_valid 3.88139e-05
*RES
1 *1275:X o_valid 25.3161 
*END

*D_NET *27 0.000659052
*CONN
*P rst_n I
*I *1259:A I *D sky130_fd_sc_hd__buf_12
*CAP
1 rst_n 0.00028405
2 *1259:A 0.00028405
3 *1259:A *270:10 9.09514e-05
*RES
1 rst_n *1259:A 19.9443 
*END

*D_NET *28 0.000826148
*CONN
*I *1130:D I *D sky130_fd_sc_hd__dfrtp_1
*I *1129:A I *D sky130_fd_sc_hd__nor2_1
*I *922:X O *D sky130_fd_sc_hd__clkbuf_1
*CAP
1 *1130:D 9.82901e-05
2 *1129:A 3.93435e-05
3 *922:X 3.26532e-05
4 *28:6 0.000170287
5 *1129:A *921:B 2.04681e-05
6 *1129:A *922:A 0.000100165
7 *1129:A *1128:B 3.49456e-06
8 *1130:D *1193:D 7.3988e-05
9 *28:6 *922:A 2.74737e-05
10 *28:6 *1128:B 0.000228876
11 *28:6 *1129:B 3.11088e-05
*RES
1 *922:X *28:6 11.4786 
2 *28:6 *1129:A 10.9786 
3 *28:6 *1130:D 20.2464 
*END

*D_NET *29 0.000273384
*CONN
*I *1186:D I *D sky130_fd_sc_hd__dfrtp_1
*I *968:Y O *D sky130_fd_sc_hd__o21ai_1
*CAP
1 *1186:D 0.000127453
2 *968:Y 0.000127453
3 *1186:D *30:22 1.84776e-05
*RES
1 *968:Y *1186:D 20.3679 
*END

*D_NET *30 0.0253171
*CONN
*I *1084:S I *D sky130_fd_sc_hd__mux2_1
*I *1086:S I *D sky130_fd_sc_hd__mux2_1
*I *1095:S I *D sky130_fd_sc_hd__mux2_1
*I *1097:S I *D sky130_fd_sc_hd__mux2_1
*I *1092:S I *D sky130_fd_sc_hd__mux2_1
*I *1179:D I *D sky130_fd_sc_hd__dfrtp_1
*I *1088:S I *D sky130_fd_sc_hd__mux2_1
*I *956:X O *D sky130_fd_sc_hd__clkbuf_4
*CAP
1 *1084:S 5.1452e-05
2 *1086:S 0.000492875
3 *1095:S 0.000695566
4 *1097:S 0
5 *1092:S 0.00172602
6 *1179:D 9.18312e-05
7 *1088:S 0
8 *956:X 0
9 *30:113 0.00250017
10 *30:82 0.00288722
11 *30:47 0.0024897
12 *30:34 0.00118109
13 *30:22 0.00277345
14 *30:4 0.00250001
15 *1084:S *1084:A1 4.34416e-05
16 *1086:S *1085:A 7.55152e-05
17 *1086:S *99:35 0.000478899
18 *1086:S *256:628 0
19 *1086:S *256:638 0
20 *1092:S *992:A 5.66971e-05
21 *1092:S *1137:D 0.000186464
22 *1092:S *1139:CLK 0.000226126
23 *1092:S *1139:D 3.40113e-05
24 *1092:S *1139:RESET_B 0.000296086
25 *1092:S *1179:CLK 3.75912e-05
26 *1092:S *1179:RESET_B 4.41902e-05
27 *1092:S *256:393 2.29097e-05
28 *1095:S *932:B1 9.14771e-06
29 *1095:S *1095:A0 5.49489e-05
30 *1095:S *1123:B 8.54803e-05
31 *1095:S *102:112 0.0004953
32 *1095:S *105:10 0.00018527
33 *1179:D *1179:CLK 2.84026e-05
34 *1179:D *1179:RESET_B 3.41649e-05
35 *30:22 *955:A_N 6.96489e-05
36 *30:22 *1097:A1 0.000796109
37 *30:22 *1122:A2 0.000528337
38 *30:22 *129:48 6.18816e-06
39 *30:22 *219:22 0.000141444
40 *30:34 *1077:A 0
41 *30:34 *1088:A1 1.59373e-05
42 *30:34 *1172:CLK 0.000118903
43 *30:34 *1178:D 1.33343e-05
44 *30:34 *244:10 0.000513871
45 *30:34 *319:10 0.00110633
46 *30:47 *999:A 9.96487e-05
47 *30:47 *1001:A 0.000127939
48 *30:47 *1077:A 7.83462e-05
49 *30:47 *1088:A0 0
50 *30:47 *1088:A1 7.57312e-05
51 *30:47 *1178:D 0
52 *30:47 *245:25 0
53 *30:47 *245:40 0
54 *30:82 *967:A1 3.21277e-05
55 *30:82 *1122:A2 4.67911e-05
56 *30:82 *97:33 2.21751e-05
57 *30:113 *1084:A1 0.000228514
58 *30:113 *1085:A 5.45307e-05
59 *30:113 *1174:CLK 0.000563596
60 *30:113 *1174:D 2.89016e-05
61 *30:113 *1174:RESET_B 1.58884e-05
62 *30:113 *97:33 8.4215e-05
63 *30:113 *256:599 0.000196331
64 *30:113 *256:611 0.000368294
65 *30:113 *256:618 0.000126272
66 *30:113 *256:628 5.51716e-05
67 *1186:D *30:22 1.84776e-05
*RES
1 *956:X *30:4 9.3 
2 *30:4 *30:22 48.1429 
3 *30:22 *30:34 25.3036 
4 *30:34 *1088:S 9.3 
5 *30:34 *30:47 22.3214 
6 *30:47 *1179:D 11.0679 
7 *30:47 *1092:S 33.4786 
8 *30:22 *1097:S 9.3 
9 *30:4 *30:82 3 
10 *30:82 *1095:S 39.6929 
11 *30:82 *30:113 39.8393 
12 *30:113 *1086:S 30.2643 
13 *30:113 *1084:S 10.2464 
*END

*D_NET *31 0.000910147
*CONN
*I *1131:D I *D sky130_fd_sc_hd__dfrtp_1
*I *976:X O *D sky130_fd_sc_hd__clkbuf_1
*CAP
1 *1131:D 0.000188028
2 *976:X 0.000188028
3 *1131:D *977:A0 0.000177948
4 *1131:D *1131:CLK 2.286e-05
5 *1131:D *145:55 0.000154762
6 *1131:D *256:26 6.2055e-05
7 *1131:D *256:36 4.06782e-05
8 *1131:D *324:120 7.57869e-05
*RES
1 *976:X *1131:D 33.2786 
*END

*D_NET *32 0.000781297
*CONN
*I *1132:D I *D sky130_fd_sc_hd__dfrtp_1
*I *978:X O *D sky130_fd_sc_hd__clkbuf_1
*CAP
1 *1132:D 0.000278412
2 *978:X 0.000278412
3 *1132:D *1224:A 8.71847e-05
4 *1132:D *1273:A 6.74911e-05
5 *1132:D *326:130 6.97972e-05
*RES
1 *978:X *1132:D 32.2429 
*END

*D_NET *33 0.000593665
*CONN
*I *1133:D I *D sky130_fd_sc_hd__dfrtp_1
*I *980:X O *D sky130_fd_sc_hd__clkbuf_1
*CAP
1 *1133:D 0.00022397
2 *980:X 0.00022397
3 *1133:D *243:31 0.000145725
*RES
1 *980:X *1133:D 21.6179 
*END

*D_NET *34 0.00046504
*CONN
*I *1134:D I *D sky130_fd_sc_hd__dfrtp_1
*I *988:X O *D sky130_fd_sc_hd__clkbuf_1
*CAP
1 *1134:D 0.000218258
2 *988:X 0.000218258
3 *1134:D *256:771 2.85234e-05
*RES
1 *988:X *1134:D 30.8321 
*END

*D_NET *35 0.000390321
*CONN
*I *1135:D I *D sky130_fd_sc_hd__dfrtp_1
*I *990:X O *D sky130_fd_sc_hd__clkbuf_1
*CAP
1 *1135:D 0.000137785
2 *990:X 0.000137785
3 *1135:D *1134:RESET_B 6.8255e-05
4 *1135:D *1173:RESET_B 9.15842e-06
5 *1135:D *99:22 3.73361e-05
*RES
1 *990:X *1135:D 30.0107 
*END

*D_NET *36 0.000612924
*CONN
*I *1136:D I *D sky130_fd_sc_hd__dfrtp_1
*I *991:X O *D sky130_fd_sc_hd__a21o_1
*CAP
1 *1136:D 0.0002198
2 *991:X 0.0002198
3 *1136:D *986:C1 7.56127e-05
4 *1136:D *281:29 0
5 *1136:D *314:14 9.77118e-05
*RES
1 *991:X *1136:D 31.3857 
*END

*D_NET *37 0.000581746
*CONN
*I *1137:D I *D sky130_fd_sc_hd__dfrtp_1
*I *999:X O *D sky130_fd_sc_hd__clkbuf_1
*CAP
1 *1137:D 0.00011143
2 *999:X 0.00011143
3 *1137:D *999:A 5.54817e-06
4 *1137:D *1179:CLK 9.83442e-05
5 *1137:D *245:40 6.8529e-05
6 *1137:D *319:10 0
7 *1092:S *1137:D 0.000186464
*RES
1 *999:X *1137:D 31.0643 
*END

*D_NET *38 0.000416149
*CONN
*I *1138:D I *D sky130_fd_sc_hd__dfrtp_1
*I *1001:X O *D sky130_fd_sc_hd__clkbuf_1
*CAP
1 *1138:D 0.000172262
2 *1001:X 0.000172262
3 *1138:D *1138:CLK 7.16247e-05
*RES
1 *1001:X *1138:D 20.6938 
*END

*D_NET *39 0.000553646
*CONN
*I *1139:D I *D sky130_fd_sc_hd__dfrtp_1
*I *1002:X O *D sky130_fd_sc_hd__a21o_1
*CAP
1 *1139:D 0.000211058
2 *1002:X 0.000211058
3 *1139:D *1092:A0 2.56694e-05
4 *1139:D *1139:CLK 7.18491e-05
5 *1139:D *253:20 0
6 *1092:S *1139:D 3.40113e-05
*RES
1 *1002:X *1139:D 30.7339 
*END

*D_NET *40 0.000681561
*CONN
*I *1140:D I *D sky130_fd_sc_hd__dfrtp_1
*I *1004:X O *D sky130_fd_sc_hd__clkbuf_1
*CAP
1 *1140:D 0.000234008
2 *1004:X 0.000234008
3 *1140:D *1078:A1 6.87574e-05
4 *1140:D *126:228 0
5 *1140:D *154:27 4.57445e-05
6 *1140:D *154:33 9.90431e-05
*RES
1 *1004:X *1140:D 31.4214 
*END

*D_NET *41 0.00114508
*CONN
*I *1141:D I *D sky130_fd_sc_hd__dfrtp_1
*I *1006:X O *D sky130_fd_sc_hd__clkbuf_1
*CAP
1 *1141:D 0.000300304
2 *1006:X 0.000300304
3 *1141:D *1006:A 6.90533e-05
4 *1141:D *1084:A1 6.96806e-05
5 *1141:D *113:8 2.33087e-05
6 *1141:D *294:14 9.17004e-05
7 *1141:D *324:120 0.000290727
*RES
1 *1006:X *1141:D 34.0821 
*END

*D_NET *42 0.00101543
*CONN
*I *1142:D I *D sky130_fd_sc_hd__dfrtp_1
*I *1008:X O *D sky130_fd_sc_hd__clkbuf_1
*CAP
1 *1142:D 0.000169743
2 *1008:X 0.000169743
3 *1142:D *932:A1 0.000173159
4 *1142:D *1142:RESET_B 5.33005e-05
5 *1142:D *1191:RESET_B 3.14003e-05
6 *1142:D *246:48 2.51343e-06
7 *1142:D *246:83 2.95143e-05
8 *1142:D *256:720 0.000267625
9 *1142:D *355:19 0.00011843
*RES
1 *1008:X *1142:D 32.725 
*END

*D_NET *43 0.0003362
*CONN
*I *1143:D I *D sky130_fd_sc_hd__dfrtp_1
*I *1016:X O *D sky130_fd_sc_hd__clkbuf_1
*CAP
1 *1143:D 0.000158989
2 *1016:X 0.000158989
3 *1143:D *1018:A 1.72894e-05
4 *1143:D *1144:D 9.33978e-07
*RES
1 *1016:X *1143:D 29.8857 
*END

*D_NET *44 0.000280124
*CONN
*I *1144:D I *D sky130_fd_sc_hd__dfrtp_1
*I *1018:X O *D sky130_fd_sc_hd__clkbuf_1
*CAP
1 *1144:D 0.000139595
2 *1018:X 0.000139595
3 *1143:D *1144:D 9.33978e-07
*RES
1 *1018:X *1144:D 29.3545 
*END

*D_NET *45 0.000445786
*CONN
*I *1145:D I *D sky130_fd_sc_hd__dfrtp_1
*I *1019:X O *D sky130_fd_sc_hd__a21o_1
*CAP
1 *1145:D 0.000172856
2 *1019:X 0.000172856
3 *1145:D *240:73 0.000100074
*RES
1 *1019:X *1145:D 31.0107 
*END

*D_NET *46 0.000313694
*CONN
*I *1146:D I *D sky130_fd_sc_hd__dfrtp_1
*I *1021:X O *D sky130_fd_sc_hd__clkbuf_1
*CAP
1 *1146:D 8.34819e-05
2 *1021:X 8.34819e-05
3 *1146:D *1021:A 3.75959e-05
4 *1146:D *245:12 3.17211e-05
5 *1146:D *256:377 7.74135e-05
*RES
1 *1021:X *1146:D 29.2295 
*END

*D_NET *47 0.000520758
*CONN
*I *1147:D I *D sky130_fd_sc_hd__dfrtp_1
*I *1023:X O *D sky130_fd_sc_hd__clkbuf_1
*CAP
1 *1147:D 0.000212652
2 *1023:X 0.000212652
3 *1147:D *1182:CLK 4.97906e-05
4 *1147:D *244:44 4.5664e-05
*RES
1 *1023:X *1147:D 21.6179 
*END

*D_NET *48 0.000466923
*CONN
*I *1148:D I *D sky130_fd_sc_hd__dfrtp_1
*I *1025:X O *D sky130_fd_sc_hd__clkbuf_1
*CAP
1 *1148:D 0.00020009
2 *1025:X 0.00020009
3 *1148:D *1182:RESET_B 0
4 *1148:D *319:10 6.6742e-05
*RES
1 *1025:X *1148:D 30.6 
*END

*D_NET *49 0.000917026
*CONN
*I *1149:D I *D sky130_fd_sc_hd__dfrtp_1
*I *1033:X O *D sky130_fd_sc_hd__clkbuf_1
*CAP
1 *1149:D 0.000305893
2 *1033:X 0.000305893
3 *1149:D *1027:A 0
4 *1149:D *1030:B1 5.33005e-05
5 *1149:D *1030:B2 3.51106e-05
6 *1149:D *1033:A 6.77561e-05
7 *1149:D *1158:CLK 0.000123138
8 *1149:D *240:48 2.59355e-05
*RES
1 *1033:X *1149:D 32.5643 
*END

*D_NET *50 0.000368245
*CONN
*I *1150:D I *D sky130_fd_sc_hd__dfrtp_1
*I *1035:X O *D sky130_fd_sc_hd__clkbuf_1
*CAP
1 *1150:D 0.000133575
2 *1035:X 0.000133575
3 *1150:D *1035:A 2.27766e-05
4 *1150:D *1150:CLK 7.83179e-05
*RES
1 *1035:X *1150:D 21.2071 
*END

*D_NET *51 0.000714993
*CONN
*I *1151:D I *D sky130_fd_sc_hd__dfrtp_1
*I *1036:X O *D sky130_fd_sc_hd__a21o_1
*CAP
1 *1151:D 0.000241297
2 *1036:X 0.000241297
3 *1151:D *1036:A1 0
4 *1151:D *251:6 0.000232399
*RES
1 *1036:X *1151:D 31.4214 
*END

*D_NET *52 0.00050806
*CONN
*I *1152:D I *D sky130_fd_sc_hd__dfrtp_1
*I *1038:X O *D sky130_fd_sc_hd__clkbuf_1
*CAP
1 *1152:D 0.000175573
2 *1038:X 0.000175573
3 *1152:D *1197:A 5.49995e-05
4 *1152:D *326:53 0.000101915
*RES
1 *1038:X *1152:D 30.2964 
*END

*D_NET *53 0.00087466
*CONN
*I *1153:D I *D sky130_fd_sc_hd__dfrtp_1
*I *1040:X O *D sky130_fd_sc_hd__clkbuf_1
*CAP
1 *1153:D 0.00025108
2 *1040:X 0.00025108
3 *1153:D *1011:A 0
4 *1153:D *1235:A 0.000270314
5 *1153:D *326:53 0.000102185
*RES
1 *1040:X *1153:D 31.5286 
*END

*D_NET *54 0.000531072
*CONN
*I *1154:D I *D sky130_fd_sc_hd__dfrtp_1
*I *1042:X O *D sky130_fd_sc_hd__clkbuf_1
*CAP
1 *1154:D 0.000265536
2 *1042:X 0.000265536
3 *1154:D *319:10 0
4 *1264:A *1154:D 0
*RES
1 *1042:X *1154:D 31.1179 
*END

*D_NET *55 0.000309421
*CONN
*I *1155:D I *D sky130_fd_sc_hd__dfrtp_1
*I *1044:X O *D sky130_fd_sc_hd__clkbuf_1
*CAP
1 *1155:D 0.000119066
2 *1044:X 0.000119066
3 *1155:D *1157:CLK 4.04221e-05
4 *1155:D *253:72 3.08664e-05
*RES
1 *1044:X *1155:D 29.7786 
*END

*D_NET *56 0.000926366
*CONN
*I *1156:D I *D sky130_fd_sc_hd__dfrtp_1
*I *1046:X O *D sky130_fd_sc_hd__clkbuf_1
*CAP
1 *1156:D 0.000292737
2 *1046:X 0.000292737
3 *1156:D *972:A1 5.19842e-06
4 *1156:D *973:B2 7.83587e-05
5 *1156:D *1046:A 7.83587e-05
6 *1156:D *1156:RESET_B 0.000178976
*RES
1 *1046:X *1156:D 32.0643 
*END

*D_NET *57 0.000516154
*CONN
*I *1157:D I *D sky130_fd_sc_hd__dfrtp_1
*I *1047:X O *D sky130_fd_sc_hd__a21o_1
*CAP
1 *1157:D 0.000147596
2 *1047:X 0.000147596
3 *1157:D *1047:A2 7.54868e-05
4 *1157:D *93:162 4.80085e-05
5 *1157:D *250:14 9.74665e-05
*RES
1 *1047:X *1157:D 30.1893 
*END

*D_NET *58 0.000691878
*CONN
*I *1158:D I *D sky130_fd_sc_hd__dfrtp_1
*I *1049:X O *D sky130_fd_sc_hd__clkbuf_1
*CAP
1 *1158:D 0.000220325
2 *1049:X 0.000220325
3 *1158:D *1049:A 0.000128154
4 *1158:D *1158:RESET_B 0.000123075
*RES
1 *1049:X *1158:D 32.2429 
*END

*D_NET *59 0.000304788
*CONN
*I *1159:D I *D sky130_fd_sc_hd__dfrtp_1
*I *1051:X O *D sky130_fd_sc_hd__clkbuf_1
*CAP
1 *1159:D 0.000110633
2 *1051:X 0.000110633
3 *1159:D *1159:RESET_B 5.49995e-05
4 *1159:D *326:36 2.85234e-05
*RES
1 *1051:X *1159:D 29.475 
*END

*D_NET *60 0.000814392
*CONN
*I *1160:D I *D sky130_fd_sc_hd__dfrtp_1
*I *1053:X O *D sky130_fd_sc_hd__clkbuf_1
*CAP
1 *1160:D 0.000152766
2 *1053:X 0.000152766
3 *1160:D *1009:A 0.000103611
4 *1160:D *1246:A 7.6997e-05
5 *1160:D *93:66 3.33084e-05
6 *1160:D *240:67 3.21277e-05
7 *1160:D *240:73 3.42509e-05
8 *1160:D *256:179 0.000228566
*RES
1 *1053:X *1160:D 32.0286 
*END

*D_NET *61 0.00021169
*CONN
*I *1161:D I *D sky130_fd_sc_hd__dfrtp_1
*I *1055:X O *D sky130_fd_sc_hd__clkbuf_1
*CAP
1 *1161:D 5.33579e-05
2 *1055:X 5.33579e-05
3 *1161:D *923:A 0
4 *1161:D *1005:A1 0.000104974
*RES
1 *1055:X *1161:D 28.9393 
*END

*D_NET *62 0.000549944
*CONN
*I *1162:D I *D sky130_fd_sc_hd__dfrtp_1
*I *1057:X O *D sky130_fd_sc_hd__clkbuf_1
*CAP
1 *1162:D 0.00021463
2 *1057:X 0.00021463
3 *1162:D *1162:CLK 7.88091e-05
4 *1162:D *371:8 4.18747e-05
*RES
1 *1057:X *1162:D 21.6179 
*END

*D_NET *63 0.00054368
*CONN
*I *1163:D I *D sky130_fd_sc_hd__dfrtp_1
*I *1059:X O *D sky130_fd_sc_hd__clkbuf_1
*CAP
1 *1163:D 0.000147824
2 *1059:X 0.000147824
3 *1163:D *1059:A 0
4 *1163:D *243:31 0.000248033
*RES
1 *1059:X *1163:D 30.2964 
*END

*D_NET *64 0.000391504
*CONN
*I *1164:D I *D sky130_fd_sc_hd__dfrtp_1
*I *1061:X O *D sky130_fd_sc_hd__clkbuf_1
*CAP
1 *1164:D 0.000156569
2 *1061:X 0.000156569
3 *1164:D *243:31 0
4 *1164:D *367:23 7.83659e-05
*RES
1 *1061:X *1164:D 30.0107 
*END

*D_NET *65 0.000836262
*CONN
*I *1165:D I *D sky130_fd_sc_hd__dfrtp_1
*I *1063:X O *D sky130_fd_sc_hd__clkbuf_1
*CAP
1 *1165:D 0.000354412
2 *1063:X 0.000354412
3 *1165:D *240:25 0
4 *1165:D *240:125 0
5 *1165:D *369:8 0.000127439
*RES
1 *1063:X *1165:D 33.0286 
*END

*D_NET *66 0.000282384
*CONN
*I *1166:D I *D sky130_fd_sc_hd__dfrtp_1
*I *1065:X O *D sky130_fd_sc_hd__clkbuf_1
*CAP
1 *1166:D 7.43514e-05
2 *1065:X 7.43514e-05
3 *1166:D *1065:A 7.60689e-05
4 *1166:D *1166:CLK 5.76121e-05
*RES
1 *1065:X *1166:D 20.7964 
*END

*D_NET *67 0.00022634
*CONN
*I *1167:D I *D sky130_fd_sc_hd__dfrtp_1
*I *1067:X O *D sky130_fd_sc_hd__clkbuf_1
*CAP
1 *1167:D 7.98292e-05
2 *1067:X 7.98292e-05
3 *1167:D *93:213 6.66813e-05
*RES
1 *1067:X *1167:D 29.2429 
*END

*D_NET *68 0.000465369
*CONN
*I *1168:D I *D sky130_fd_sc_hd__dfrtp_1
*I *1069:X O *D sky130_fd_sc_hd__clkbuf_1
*CAP
1 *1168:D 0.000169717
2 *1069:X 0.000169717
3 *1168:D *1168:CLK 3.53199e-05
4 *1168:D *1249:A 5.71472e-05
5 *1168:D *126:32 3.34672e-05
*RES
1 *1069:X *1168:D 30.4795 
*END

*D_NET *69 0.000256707
*CONN
*I *1169:D I *D sky130_fd_sc_hd__dfrtp_1
*I *1071:X O *D sky130_fd_sc_hd__clkbuf_1
*CAP
1 *1169:D 0.000101654
2 *1071:X 0.000101654
3 *1169:D *1071:A 5.33978e-05
4 *1169:D *319:10 0
*RES
1 *1071:X *1169:D 29.475 
*END

*D_NET *70 0.00040184
*CONN
*I *1170:D I *D sky130_fd_sc_hd__dfrtp_1
*I *1073:X O *D sky130_fd_sc_hd__clkbuf_1
*CAP
1 *1170:D 0.000145072
2 *1073:X 0.000145072
3 *1170:D *1073:A 5.49995e-05
4 *1170:D *1170:RESET_B 5.66971e-05
*RES
1 *1073:X *1170:D 21.2071 
*END

*D_NET *71 0.00136907
*CONN
*I *1171:D I *D sky130_fd_sc_hd__dfrtp_1
*I *1075:X O *D sky130_fd_sc_hd__clkbuf_1
*CAP
1 *1171:D 0.000410076
2 *1075:X 0.000410076
3 *1171:D *950:A 0.000126272
4 *1171:D *1074:A0 2.83425e-05
5 *1171:D *1075:A 4.0698e-05
6 *1171:D *1189:CLK 0.000255137
7 *1171:D *362:27 9.84673e-05
*RES
1 *1075:X *1171:D 36.7607 
*END

*D_NET *72 0.000455805
*CONN
*I *1172:D I *D sky130_fd_sc_hd__dfrtp_1
*I *1077:X O *D sky130_fd_sc_hd__clkbuf_1
*CAP
1 *1172:D 0.000210854
2 *1077:X 0.000210854
3 *1172:D *1172:CLK 3.40979e-05
*RES
1 *1077:X *1172:D 21.2071 
*END

*D_NET *73 0.00088921
*CONN
*I *1173:D I *D sky130_fd_sc_hd__dfrtp_1
*I *1079:X O *D sky130_fd_sc_hd__clkbuf_1
*CAP
1 *1173:D 0.000326438
2 *1079:X 0.000326438
3 *1173:D *102:10 1.00332e-05
4 *1173:D *102:108 7.85137e-05
5 *1173:D *247:26 7.6644e-05
6 *1173:D *247:32 5.67156e-05
7 *1173:D *247:41 1.44281e-05
*RES
1 *1079:X *1173:D 32.1893 
*END

*D_NET *74 0.00106109
*CONN
*I *1174:D I *D sky130_fd_sc_hd__dfrtp_1
*I *1081:X O *D sky130_fd_sc_hd__clkbuf_1
*CAP
1 *1174:D 0.000338771
2 *1081:X 0.000338771
3 *1174:D *1082:S 3.50612e-05
4 *1174:D *113:8 0.000183711
5 *1174:D *256:599 0
6 *1174:D *324:120 5.84648e-05
7 *1174:D *360:12 7.74068e-05
8 *30:113 *1174:D 2.89016e-05
*RES
1 *1081:X *1174:D 33.975 
*END

*D_NET *75 0.000326853
*CONN
*I *1175:D I *D sky130_fd_sc_hd__dfrtp_1
*I *1083:X O *D sky130_fd_sc_hd__clkbuf_1
*CAP
1 *1175:D 0.00011464
2 *1083:X 0.00011464
3 *1175:D *1083:A 4.42731e-05
4 *1175:D *1175:CLK 5.33005e-05
*RES
1 *1083:X *1175:D 20.9214 
*END

*D_NET *76 0.00146776
*CONN
*I *1176:D I *D sky130_fd_sc_hd__dfrtp_1
*I *1085:X O *D sky130_fd_sc_hd__clkbuf_1
*CAP
1 *1176:D 0.000602395
2 *1085:X 0.000602395
3 *1176:D *1080:A1 0
4 *1176:D *256:618 0.000100248
5 *1176:D *256:628 0.000162721
*RES
1 *1085:X *1176:D 35.85 
*END

*D_NET *77 0.000316438
*CONN
*I *1177:D I *D sky130_fd_sc_hd__dfrtp_1
*I *1087:X O *D sky130_fd_sc_hd__clkbuf_1
*CAP
1 *1177:D 0.000107108
2 *1087:X 0.000107108
3 *1177:D *1177:CLK 5.65955e-05
4 *1177:D *270:18 4.56276e-05
*RES
1 *1087:X *1177:D 20.9214 
*END

*D_NET *78 0.00100502
*CONN
*I *1178:D I *D sky130_fd_sc_hd__dfrtp_1
*I *1089:X O *D sky130_fd_sc_hd__clkbuf_1
*CAP
1 *1178:D 0.00030476
2 *1089:X 0.00030476
3 *1178:D *1088:A0 0.00010326
4 *1178:D *1089:A 0.00010096
5 *1178:D *319:10 0.000177948
6 *30:34 *1178:D 1.33343e-05
7 *30:47 *1178:D 0
*RES
1 *1089:X *1178:D 33.8143 
*END

*D_NET *79 0.000699892
*CONN
*I *1180:D I *D sky130_fd_sc_hd__dfrtp_1
*I *1093:X O *D sky130_fd_sc_hd__clkbuf_1
*CAP
1 *1180:D 0.000238166
2 *1093:X 0.000238166
3 *1180:D *1093:A 3.9733e-05
4 *1180:D *1180:CLK 3.11088e-05
5 *1180:D *93:232 0.000152718
*RES
1 *1093:X *1180:D 32.5464 
*END

*D_NET *80 0.000341623
*CONN
*I *1181:D I *D sky130_fd_sc_hd__dfrtp_1
*I *1096:X O *D sky130_fd_sc_hd__clkbuf_1
*CAP
1 *1181:D 0.000107534
2 *1096:X 0.000107534
3 *1181:D *1181:CLK 5.50052e-05
4 *1181:D *1181:RESET_B 7.15503e-05
*RES
1 *1096:X *1181:D 20.7964 
*END

*D_NET *81 0.000856976
*CONN
*I *1182:D I *D sky130_fd_sc_hd__dfrtp_1
*I *1098:X O *D sky130_fd_sc_hd__clkbuf_1
*CAP
1 *1182:D 0.000428488
2 *1098:X 0.000428488
*RES
1 *1098:X *1182:D 33.0107 
*END

*D_NET *82 0.000184299
*CONN
*I *1183:D I *D sky130_fd_sc_hd__dfrtp_4
*I *1103:X O *D sky130_fd_sc_hd__clkbuf_1
*CAP
1 *1183:D 6.70628e-05
2 *1103:X 6.70628e-05
3 *1183:D *1103:A 3.92854e-05
4 *1183:D *247:12 1.08881e-05
*RES
1 *1103:X *1183:D 28.8188 
*END

*D_NET *83 0.00060156
*CONN
*I *1184:D I *D sky130_fd_sc_hd__dfrtp_1
*I *1108:X O *D sky130_fd_sc_hd__o211a_1
*CAP
1 *1184:D 0.000270595
2 *1108:X 0.000270595
3 *1184:D *1108:B1 5.66971e-05
4 *1184:D *1180:CLK 3.67279e-06
*RES
1 *1108:X *1184:D 32.2071 
*END

*D_NET *84 0.000724638
*CONN
*I *1185:D I *D sky130_fd_sc_hd__dfrtp_1
*I *1111:Y O *D sky130_fd_sc_hd__a21oi_1
*CAP
1 *1185:D 0.000233114
2 *1111:Y 0.000233114
3 *1185:D *1110:A 1.87331e-05
4 *1185:D *1111:A1 1.6806e-05
5 *1185:D *1111:A2 3.11088e-05
6 *1185:D *1111:B1 7.25873e-06
7 *1185:D *126:265 0.000184503
*RES
1 *1111:Y *1185:D 32.0464 
*END

*D_NET *85 0.00100276
*CONN
*I *1187:D I *D sky130_fd_sc_hd__dfrtp_1
*I *1113:Y O *D sky130_fd_sc_hd__nand2_1
*CAP
1 *1187:D 0.000256248
2 *1113:Y 0.000256248
3 *1187:D *964:A1 0.000139338
4 *1187:D *964:A2 4.58402e-05
5 *1187:D *1203:A 0.000226274
6 *1187:D *115:14 7.88091e-05
*RES
1 *1113:Y *1187:D 32.475 
*END

*D_NET *86 0.000501964
*CONN
*I *1188:D I *D sky130_fd_sc_hd__dfrtp_1
*I *1115:Y O *D sky130_fd_sc_hd__nand2_1
*CAP
1 *1188:D 0.000139075
2 *1115:Y 0.000139075
3 *1188:D *1092:A1 5.56943e-05
4 *1188:D *1115:A 5.33433e-05
5 *1188:D *98:18 1.15172e-05
6 *1188:D *127:20 2.48938e-05
7 *1188:D *127:22 7.83659e-05
*RES
1 *1115:Y *1188:D 30.2964 
*END

*D_NET *87 0.000546949
*CONN
*I *1189:D I *D sky130_fd_sc_hd__dfrtp_1
*I *1118:X O *D sky130_fd_sc_hd__clkbuf_1
*CAP
1 *1189:D 0.000125331
2 *1118:X 0.000125331
3 *1189:D *950:A 0.000128161
4 *1189:D *1118:A 6.75007e-05
5 *1189:D *1189:RESET_B 0.000100625
*RES
1 *1118:X *1189:D 31.0107 
*END

*D_NET *88 0.00144041
*CONN
*I *1190:D I *D sky130_fd_sc_hd__dfrtp_1
*I *1121:X O *D sky130_fd_sc_hd__clkbuf_1
*CAP
1 *1190:D 0.000494155
2 *1121:X 0.000494155
3 *1190:D *98:53 0.000267137
4 *1190:D *99:69 0.000107553
5 *1190:D *377:27 7.74068e-05
*RES
1 *1121:X *1190:D 34.6536 
*END

*D_NET *89 0.00127179
*CONN
*I *1191:D I *D sky130_fd_sc_hd__dfrtp_1
*I *1124:X O *D sky130_fd_sc_hd__clkbuf_1
*CAP
1 *1191:D 0.000376952
2 *1124:X 0.000376952
3 *1191:D *932:B1 7.83659e-05
4 *1191:D *1124:A 0.000137437
5 *1191:D *1191:CLK 0.00012306
6 *1191:D *97:33 4.80729e-05
7 *1191:D *246:10 7.54868e-05
8 *1191:D *246:23 5.54655e-05
*RES
1 *1124:X *1191:D 34.4214 
*END

*D_NET *90 0.000360597
*CONN
*I *1192:D I *D sky130_fd_sc_hd__dfrtp_4
*I *1125:X O *D sky130_fd_sc_hd__xor2_1
*CAP
1 *1192:D 0.00013899
2 *1125:X 0.00013899
3 *1192:D *1156:CLK 8.26174e-05
*RES
1 *1125:X *1192:D 21.35 
*END

*D_NET *91 0.00206201
*CONN
*I *1193:D I *D sky130_fd_sc_hd__dfrtp_4
*I *1127:Y O *D sky130_fd_sc_hd__nor2_1
*CAP
1 *1193:D 0.000622763
2 *1127:Y 0.000622763
3 *1193:D *920:A 5.33005e-05
4 *1193:D *920:C 8.66612e-05
5 *1193:D *1048:A0 9.71197e-05
6 *1193:D *1127:A 2.12733e-05
7 *1193:D *1127:B 0.000184503
8 *1193:D *1128:B 5.19842e-06
9 *1193:D *1193:CLK 0.000124019
10 *1193:D *93:133 5.21016e-05
11 *1193:D *94:17 1.15281e-05
12 *1193:D *325:8 3.4689e-05
13 *1193:D *326:18 4.24059e-05
14 *1193:D *326:36 2.97001e-05
15 *1130:D *1193:D 7.3988e-05
*RES
1 *1127:Y *1193:D 39.2786 
*END

*D_NET *92 0.000752983
*CONN
*I *1194:D I *D sky130_fd_sc_hd__dfrtp_4
*I *1129:Y O *D sky130_fd_sc_hd__nor2_1
*CAP
1 *1194:D 0.000211739
2 *1129:Y 0.000211739
3 *1194:D *922:A 0.000142856
4 *1194:D *93:141 4.37999e-05
5 *1194:D *326:18 0.00014285
*RES
1 *1129:Y *1194:D 31.6536 
*END

*D_NET *93 0.0367513
*CONN
*I *991:A1 I *D sky130_fd_sc_hd__a21o_1
*I *986:C1 I *D sky130_fd_sc_hd__o221a_2
*I *1002:A1 I *D sky130_fd_sc_hd__a21o_1
*I *997:C1 I *D sky130_fd_sc_hd__o221a_2
*I *920:A I *D sky130_fd_sc_hd__and3_1
*I *974:C1 I *D sky130_fd_sc_hd__o221a_2
*I *1125:A I *D sky130_fd_sc_hd__xor2_1
*I *1047:A2 I *D sky130_fd_sc_hd__a21o_1
*I *1126:A1 I *D sky130_fd_sc_hd__a21oi_1
*I *1014:C1 I *D sky130_fd_sc_hd__o221a_2
*I *1031:C1 I *D sky130_fd_sc_hd__o221a_2
*I *1019:A1 I *D sky130_fd_sc_hd__a21o_1
*I *1036:A1 I *D sky130_fd_sc_hd__a21o_1
*I *919:X O *D sky130_fd_sc_hd__buf_4
*CAP
1 *991:A1 0
2 *986:C1 0.000315113
3 *1002:A1 4.23128e-05
4 *997:C1 0
5 *920:A 2.04425e-05
6 *974:C1 0.00013884
7 *1125:A 0.000454069
8 *1047:A2 0.000163575
9 *1126:A1 0
10 *1014:C1 4.34237e-05
11 *1031:C1 0
12 *1019:A1 0
13 *1036:A1 0.000617168
14 *919:X 0.000337724
15 *93:265 0.0016191
16 *93:232 0.00194357
17 *93:219 0.00144118
18 *93:213 0.00272875
19 *93:162 0.000912236
20 *93:141 0.00149537
21 *93:133 0.00124771
22 *93:122 0.00138996
23 *93:100 0.0036908
24 *93:81 0.000990664
25 *93:66 0.00115136
26 *93:42 0.00150363
27 *93:18 0.000865545
28 *93:12 0.00062194
29 *920:A *326:36 2.59355e-05
30 *986:C1 *986:A1 5.50052e-05
31 *986:C1 *986:B1 9.15842e-06
32 *986:C1 *986:B2 5.66971e-05
33 *986:C1 *987:A0 0
34 *986:C1 *1136:CLK 4.26814e-05
35 *986:C1 *1240:A 0
36 *986:C1 *281:29 0
37 *1014:C1 *1012:B1 3.4846e-06
38 *1014:C1 *1017:A1 2.71557e-05
39 *1036:A1 *1019:A2 3.53438e-05
40 *1036:A1 *1019:B1 2.74835e-05
41 *1036:A1 *1036:A2 1.24368e-05
42 *1036:A1 *1036:B1 1.55885e-05
43 *1036:A1 *249:10 0.000459659
44 *1036:A1 *256:222 0
45 *1047:A2 *1047:B1 5.65955e-05
46 *1047:A2 *250:14 0.000185965
47 *1047:A2 *255:22 3.13687e-05
48 *1047:A2 *255:35 4.85967e-05
49 *1125:A *1157:RESET_B 0.000177556
50 *1125:A *1273:A 0.000356051
51 *1125:A *256:77 6.14514e-05
52 *93:12 *1144:CLK 0
53 *93:12 *256:189 0
54 *93:18 *249:27 0.000389505
55 *93:18 *256:189 2.14378e-05
56 *93:66 *1009:A 0.000194122
57 *93:66 *1013:A1 9.87617e-05
58 *93:66 *1013:B1 0
59 *93:66 *1014:A2 9.73239e-06
60 *93:66 *1014:B2 8.9987e-06
61 *93:66 *1026:A 8.57023e-05
62 *93:66 *1031:A1 3.99614e-06
63 *93:66 *1031:B2 1.3701e-05
64 *93:66 *1036:B1 1.02504e-05
65 *93:66 *1150:RESET_B 0
66 *93:66 *1246:A 2.11693e-05
67 *93:66 *179:6 5.41494e-05
68 *93:66 *249:27 0.000146239
69 *93:66 *256:189 8.07879e-05
70 *93:66 *256:222 0.000732024
71 *93:66 *320:22 0
72 *93:66 *347:6 0.00031557
73 *93:81 *1012:C1 3.50594e-05
74 *93:81 *1014:A1 0.000204294
75 *93:81 *1014:B1 7.22672e-05
76 *93:81 *173:16 3.42509e-05
77 *93:81 *256:189 0.000103267
78 *93:100 *1012:A1 2.14658e-05
79 *93:100 *1014:B1 0.00035224
80 *93:100 *1064:A0 6.71657e-05
81 *93:100 *1165:CLK 9.71197e-05
82 *93:100 *126:26 9.5623e-05
83 *93:100 *126:32 5.33005e-05
84 *93:100 *256:169 0.000357054
85 *93:122 *1062:A0 0.000175854
86 *93:122 *1062:A1 0.000125528
87 *93:122 *1168:CLK 1.52978e-05
88 *93:122 *240:10 6.74046e-05
89 *93:122 *240:125 6.42242e-05
90 *93:122 *253:56 0
91 *93:122 *324:32 0.000308007
92 *93:122 *325:12 2.6269e-05
93 *93:122 *325:14 3.67279e-06
94 *93:122 *325:54 8.23781e-05
95 *93:122 *326:36 7.0172e-05
96 *93:122 *369:8 4.94362e-05
97 *93:133 *1060:A1 6.23278e-05
98 *93:133 *1127:B 4.40513e-06
99 *93:133 *1193:CLK 6.23278e-05
100 *93:133 *1194:CLK 0.00020595
101 *93:133 *324:32 5.49995e-05
102 *93:133 *326:18 5.5764e-05
103 *93:141 *1194:CLK 0.000150461
104 *93:141 *1194:RESET_B 2.85276e-05
105 *93:141 *326:8 1.62549e-05
106 *93:141 *326:18 0.000157065
107 *93:141 *326:115 2.37995e-05
108 *93:162 *326:115 0.000135349
109 *93:213 *935:C1 3.00744e-05
110 *93:213 *938:D1 0.000316546
111 *93:213 *946:B 5.38886e-05
112 *93:213 *948:B1 0
113 *93:213 *950:A 0
114 *93:213 *951:A2 3.70023e-05
115 *93:213 *951:C1 0
116 *93:213 *951:D1 0.000459198
117 *93:213 *964:B2 3.67279e-06
118 *93:213 *1020:A1 0
119 *93:213 *1118:A 0
120 *93:213 *1168:CLK 8.47011e-05
121 *93:213 *102:54 0
122 *93:213 *111:12 4.96258e-05
123 *93:213 *126:32 0
124 *93:213 *253:20 0
125 *93:213 *253:56 0
126 *93:213 *365:12 0.000234864
127 *93:213 *369:8 5.94737e-05
128 *93:213 *376:8 0
129 *93:219 *935:C1 8.69392e-05
130 *93:219 *997:A2 3.67279e-06
131 *93:219 *1072:A1 3.6337e-05
132 *93:219 *1211:A 0
133 *93:219 *102:43 0
134 *93:219 *102:54 0
135 *93:219 *245:63 0
136 *93:232 *997:B1 5.46383e-06
137 *93:232 *997:B2 1.04561e-05
138 *93:232 *1092:A0 0.000152764
139 *93:232 *1092:A1 5.09999e-05
140 *93:232 *1093:A 5.66971e-05
141 *93:265 *991:A2 5.64774e-05
142 *93:265 *1092:A0 0.000451463
143 *93:265 *314:14 0.00280666
144 *1136:D *986:C1 7.56127e-05
145 *1151:D *1036:A1 0
146 *1157:D *1047:A2 7.54868e-05
147 *1157:D *93:162 4.80085e-05
148 *1160:D *93:66 3.33084e-05
149 *1167:D *93:213 6.66813e-05
150 *1180:D *93:232 0.000152718
151 *1193:D *920:A 5.33005e-05
152 *1193:D *93:133 5.21016e-05
153 *1194:D *93:141 4.37999e-05
154 *1255:A *1036:A1 5.59013e-05
*RES
1 *919:X *93:12 23.9607 
2 *93:12 *93:18 14.5893 
3 *93:18 *1036:A1 30.3536 
4 *93:18 *1019:A1 9.3 
5 *93:12 *93:42 0.535714 
6 *93:42 *93:66 41.4821 
7 *93:66 *1031:C1 9.3 
8 *93:42 *93:81 15.4107 
9 *93:81 *1014:C1 19.0321 
10 *93:81 *93:100 18.2143 
11 *93:100 *93:122 34.6071 
12 *93:122 *1126:A1 9.3 
13 *93:122 *93:133 9.71429 
14 *93:133 *93:141 23.0714 
15 *93:141 *1047:A2 17.6393 
16 *93:141 *93:162 11.125 
17 *93:162 *1125:A 29.2107 
18 *93:162 *974:C1 11.4786 
19 *93:133 *920:A 14.3357 
20 *93:100 *93:213 39.2946 
21 *93:213 *93:219 18.9732 
22 *93:219 *997:C1 9.3 
23 *93:219 *93:232 15.4375 
24 *93:232 *1002:A1 14.3804 
25 *93:232 *93:265 45.1607 
26 *93:265 *986:C1 24.4786 
27 *93:265 *991:A1 9.3 
*END

*D_NET *94 0.00231071
*CONN
*I *1128:B I *D sky130_fd_sc_hd__nor2_1
*I *921:B I *D sky130_fd_sc_hd__and2_1
*I *1127:A I *D sky130_fd_sc_hd__nor2_1
*I *920:X O *D sky130_fd_sc_hd__and3_1
*CAP
1 *1128:B 0.000438856
2 *921:B 2.23671e-05
3 *1127:A 8.10724e-05
4 *920:X 0
5 *94:17 0.000605619
6 *94:4 0.000225469
7 *1127:A *920:B 5.89668e-05
8 *1127:A *1048:A0 1.75408e-05
9 *1127:A *1048:A1 5.49995e-05
10 *1127:A *1127:B 9.75679e-05
11 *1128:B *922:A 3.23684e-05
12 *1128:B *1128:A 3.49456e-06
13 *1128:B *1129:B 3.99044e-05
14 *94:17 *920:B 9.58632e-05
15 *94:17 *1127:B 1.65914e-05
16 *94:17 *326:18 5.33005e-05
17 *94:17 *326:36 0.000175892
18 *1129:A *921:B 2.04681e-05
19 *1129:A *1128:B 3.49456e-06
20 *1193:D *1127:A 2.12733e-05
21 *1193:D *1128:B 5.19842e-06
22 *1193:D *94:17 1.15281e-05
23 *28:6 *1128:B 0.000228876
*RES
1 *920:X *94:4 9.3 
2 *94:4 *1127:A 11.925 
3 *94:4 *94:17 3 
4 *94:17 *921:B 10.0321 
5 *94:17 *1128:B 16.4786 
*END

*D_NET *95 0.000715429
*CONN
*I *922:A I *D sky130_fd_sc_hd__clkbuf_1
*I *921:X O *D sky130_fd_sc_hd__and2_1
*CAP
1 *922:A 0.000129434
2 *921:X 0.000129434
3 *922:A *1129:B 0.000153697
4 *1128:B *922:A 3.23684e-05
5 *1129:A *922:A 0.000100165
6 *1194:D *922:A 0.000142856
7 *28:6 *922:A 2.74737e-05
*RES
1 *921:X *922:A 22.4393 
*END

*D_NET *96 0.000698854
*CONN
*I *932:A2 I *D sky130_fd_sc_hd__a211o_1
*I *923:Y O *D sky130_fd_sc_hd__inv_2
*CAP
1 *932:A2 0.000259358
2 *923:Y 0.000259358
3 *932:A2 *932:B1 5.33005e-05
4 *932:A2 *1124:A 0.000126837
*RES
1 *923:Y *932:A2 22.85 
*END

*D_NET *97 0.00469856
*CONN
*I *1122:B1 I *D sky130_fd_sc_hd__a21oi_1
*I *967:A1 I *D sky130_fd_sc_hd__o2111a_2
*I *932:B1 I *D sky130_fd_sc_hd__a211o_1
*I *924:Y O *D sky130_fd_sc_hd__inv_2
*CAP
1 *1122:B1 0
2 *967:A1 0.0003866
3 *932:B1 0.000256368
4 *924:Y 0.000421495
5 *97:33 0.00070396
6 *97:8 0.000995223
7 *932:B1 *932:A1 0.000156538
8 *932:B1 *1124:A 5.33005e-05
9 *932:B1 *102:112 0
10 *932:B1 *126:177 6.52495e-05
11 *967:A1 *956:A 0.000144773
12 *967:A1 *1122:A1 0.000183021
13 *967:A1 *1122:A2 0.000242508
14 *97:8 *924:A 3.18676e-05
15 *97:33 *932:A1 8.07291e-05
16 *97:33 *1123:A 0.000342955
17 *97:33 *1174:CLK 6.7009e-05
18 *97:33 *1191:RESET_B 0.000148182
19 *97:33 *246:23 9.1382e-05
20 *932:A2 *932:B1 5.33005e-05
21 *1095:S *932:B1 9.14771e-06
22 *1191:D *932:B1 7.83659e-05
23 *1191:D *97:33 4.80729e-05
24 *30:82 *967:A1 3.21277e-05
25 *30:82 *97:33 2.21751e-05
26 *30:113 *97:33 8.4215e-05
*RES
1 *924:Y *97:8 18.4429 
2 *97:8 *932:B1 18.8714 
3 *97:8 *97:33 13.2679 
4 *97:33 *967:A1 17.9429 
5 *97:33 *1122:B1 9.3 
*END

*D_NET *98 0.0184533
*CONN
*I *931:A1 I *D sky130_fd_sc_hd__a221o_1
*I *1101:B1 I *D sky130_fd_sc_hd__o21ai_1
*I *1100:A I *D sky130_fd_sc_hd__or3_1
*I *935:A1 I *D sky130_fd_sc_hd__a221oi_2
*I *948:A1 I *D sky130_fd_sc_hd__o21ai_1
*I *947:A1 I *D sky130_fd_sc_hd__a2111o_1
*I *959:A1 I *D sky130_fd_sc_hd__a2111oi_1
*I *944:A1 I *D sky130_fd_sc_hd__o21ai_1
*I *951:A1 I *D sky130_fd_sc_hd__a2111o_2
*I *925:Y O *D sky130_fd_sc_hd__inv_2
*CAP
1 *931:A1 0.00132542
2 *1101:B1 7.66065e-05
3 *1100:A 0.000164913
4 *935:A1 6.93432e-05
5 *948:A1 0.000333591
6 *947:A1 0
7 *959:A1 0.000199222
8 *944:A1 6.90406e-05
9 *951:A1 0.0002653
10 *925:Y 0
11 *98:59 0.000348552
12 *98:53 0.000606808
13 *98:38 0.00110358
14 *98:30 0.00132289
15 *98:18 0.00104836
16 *98:10 0.000531305
17 *98:8 0.000704743
18 *98:4 0.00188864
19 *931:A1 *923:A 0
20 *931:A1 *928:B 0.000180207
21 *931:A1 *931:A2 0.000117207
22 *931:A1 *931:B1 4.26438e-05
23 *931:A1 *932:A1 2.04626e-05
24 *931:A1 *1008:A 0.000528329
25 *931:A1 *1238:A 6.93626e-06
26 *931:A1 *99:51 8.83534e-05
27 *931:A1 *99:59 4.27842e-06
28 *931:A1 *126:198 0
29 *931:A1 *126:228 0
30 *931:A1 *326:130 0.00117435
31 *931:A1 *355:17 1.08359e-05
32 *931:A1 *355:53 0.000472288
33 *935:A1 *935:A2 0.000100037
34 *935:A1 *936:A 4.4545e-05
35 *935:A1 *1203:A 0.000181114
36 *935:A1 *239:22 9.83388e-05
37 *944:A1 *944:A2 5.71472e-05
38 *944:A1 *944:B1 2.14757e-05
39 *948:A1 *948:A2 5.65955e-05
40 *948:A1 *948:B1 5.65955e-05
41 *948:A1 *951:B1 2.84026e-05
42 *948:A1 *1119:A1 1.93303e-05
43 *951:A1 *124:10 5.66472e-05
44 *959:A1 *944:A2 0.000129515
45 *959:A1 *946:A 1.56e-05
46 *959:A1 *947:B1 7.60658e-05
47 *959:A1 *959:A2 0.000160119
48 *959:A1 *959:C1 5.65547e-05
49 *959:A1 *117:12 0.0001399
50 *959:A1 *367:36 9.82903e-05
51 *1100:A *1113:A 0.000176226
52 *1100:A *1115:B 2.19778e-05
53 *1100:A *127:20 0
54 *1100:A *127:22 0
55 *1100:A *127:28 0
56 *1100:A *219:28 1.08359e-05
57 *1100:A *219:45 1.31516e-05
58 *1101:B1 *1101:A1 6.91631e-06
59 *1101:B1 *219:22 3.23206e-05
60 *1101:B1 *219:28 8.17274e-05
61 *1101:B1 *355:61 5.52302e-05
62 *98:8 *1101:A1 2.56909e-05
63 *98:8 *355:53 5.49544e-05
64 *98:8 *355:61 0.000967891
65 *98:10 *219:28 1.24368e-05
66 *98:18 *1092:A1 7.15264e-05
67 *98:18 *1115:A 5.33433e-05
68 *98:18 *127:28 0.00015136
69 *98:30 *963:B 1.00477e-05
70 *98:30 *966:A2 0.000222885
71 *98:30 *1092:A1 5.92441e-05
72 *98:30 *115:22 1.4796e-05
73 *98:30 *115:28 8.25843e-06
74 *98:30 *116:10 7.56991e-05
75 *98:30 *116:18 0.000105582
76 *98:30 *127:28 0.000306727
77 *98:30 *137:10 0
78 *98:30 *239:18 0.000557658
79 *98:30 *253:56 0
80 *98:38 *1120:A 3.68468e-05
81 *98:38 *1120:B 0.000102545
82 *98:38 *1190:RESET_B 7.96727e-05
83 *98:38 *116:18 3.46272e-05
84 *98:38 *239:55 0
85 *98:38 *253:56 0
86 *98:38 *256:471 0.00011632
87 *98:53 *1121:A 0.000100165
88 *98:53 *1181:RESET_B 0.000126042
89 *98:53 *1276:A 0.000141935
90 *98:53 *120:22 0.00014796
91 *98:59 *947:C1 6.66813e-05
92 *98:59 *367:36 2.48421e-05
93 *1188:D *98:18 1.15172e-05
94 *1190:D *98:53 0.000267137
*RES
1 *925:Y *98:4 9.3 
2 *98:4 *98:8 11.8393 
3 *98:8 *98:10 0.946429 
4 *98:10 *98:18 10.2857 
5 *98:18 *98:30 25 
6 *98:30 *98:38 11.0536 
7 *98:38 *951:A1 12.3 
8 *98:38 *98:53 15.8929 
9 *98:53 *98:59 6.57143 
10 *98:59 *944:A1 10.675 
11 *98:59 *959:A1 24.0321 
12 *98:53 *947:A1 13.8 
13 *98:30 *948:A1 19.2821 
14 *98:18 *935:A1 16.3893 
15 *98:10 *1100:A 21.6929 
16 *98:8 *1101:B1 11.6214 
17 *98:4 *931:A1 48.8536 
*END

*D_NET *99 0.0224854
*CONN
*I *1108:A1 I *D sky130_fd_sc_hd__o211a_1
*I *1105:B I *D sky130_fd_sc_hd__nand2_1
*I *1106:B I *D sky130_fd_sc_hd__or2_1
*I *933:A I *D sky130_fd_sc_hd__inv_2
*I *940:B I *D sky130_fd_sc_hd__xnor2_1
*I *927:A I *D sky130_fd_sc_hd__or2_1
*I *928:A I *D sky130_fd_sc_hd__nand2_1
*I *949:A I *D sky130_fd_sc_hd__xor2_1
*I *945:A I *D sky130_fd_sc_hd__xor2_1
*I *1086:A1 I *D sky130_fd_sc_hd__mux2_1
*I *926:X O *D sky130_fd_sc_hd__clkbuf_4
*CAP
1 *1108:A1 0
2 *1105:B 0
3 *1106:B 4.52858e-05
4 *933:A 0.000343653
5 *940:B 7.42439e-05
6 *927:A 0
7 *928:A 2.13113e-05
8 *949:A 0.000155523
9 *945:A 0.000143113
10 *1086:A1 0
11 *926:X 0.000147297
12 *99:138 0.000499147
13 *99:134 0.000387016
14 *99:124 0.00114499
15 *99:69 0.00151173
16 *99:59 0.00150802
17 *99:51 0.00175785
18 *99:35 0.00219596
19 *99:22 0.00180103
20 *99:8 0.00217904
21 *933:A *1092:A1 0.000395427
22 *933:A *1248:A 0.000225988
23 *933:A *106:10 3.25134e-05
24 *933:A *361:12 0.000397141
25 *940:B *940:A 9.83388e-05
26 *940:B *1084:A0 5.2254e-05
27 *945:A *945:B 1.33343e-05
28 *945:A *946:A 2.44318e-05
29 *945:A *1120:A 0.000148514
30 *949:A *1068:A0 1.19813e-05
31 *949:A *119:14 0.000272028
32 *949:A *325:54 0.000470699
33 *1106:B *1092:A1 0.000150625
34 *1106:B *361:12 0.000140375
35 *99:22 *1086:A0 3.08664e-05
36 *99:22 *1087:A 2.83569e-05
37 *99:22 *1135:CLK 0.000354985
38 *99:22 *1135:RESET_B 4.70821e-05
39 *99:22 *1136:RESET_B 8.33813e-05
40 *99:22 *1245:A 0.00022867
41 *99:22 *102:10 0.000139293
42 *99:22 *126:242 0.000323949
43 *99:22 *256:656 0.000470037
44 *99:22 *256:668 0.000156911
45 *99:22 *328:6 9.84673e-05
46 *99:35 *1084:A0 0.000134692
47 *99:35 *1086:A0 0.000102168
48 *99:35 *270:16 0.000550462
49 *99:51 *940:A 6.2379e-05
50 *99:51 *1161:CLK 5.50052e-05
51 *99:51 *1161:RESET_B 9.59815e-05
52 *99:51 *1238:A 0.00014439
53 *99:51 *1273:A 0.00010403
54 *99:51 *256:10 0
55 *99:51 *256:589 0
56 *99:51 *256:599 0
57 *99:51 *270:10 0
58 *99:51 *359:10 0.000101634
59 *99:51 *370:8 0.000482679
60 *99:59 *1273:A 0.000101178
61 *99:59 *126:161 0.000119977
62 *99:59 *326:130 2.6519e-05
63 *99:69 *1120:A 0.000171355
64 *99:69 *1190:CLK 0.000141935
65 *99:69 *1190:RESET_B 8.85317e-05
66 *99:69 *377:8 0.000184987
67 *99:124 *247:103 0.000155306
68 *99:124 *247:115 2.11336e-05
69 *99:134 *1104:A 6.73111e-05
70 *99:134 *1106:A 0.000148911
71 *99:134 *102:30 5.52238e-05
72 *99:134 *127:20 7.38954e-05
73 *99:134 *219:45 0
74 *99:138 *102:30 0.000268403
75 *931:A1 *99:51 8.83534e-05
76 *931:A1 *99:59 4.27842e-06
77 *1086:S *99:35 0.000478899
78 *1135:D *99:22 3.73361e-05
79 *1190:D *99:69 0.000107553
*RES
1 *926:X *99:8 16.3536 
2 *99:8 *99:22 30.5714 
3 *99:22 *1086:A1 9.3 
4 *99:22 *99:35 23.5179 
5 *99:35 *99:51 39.7143 
6 *99:51 *99:59 9.67857 
7 *99:59 *99:69 26.625 
8 *99:69 *945:A 17.0143 
9 *99:69 *949:A 19.2821 
10 *99:59 *928:A 9.72857 
11 *99:51 *927:A 13.8 
12 *99:35 *940:B 15.5679 
13 *99:8 *99:124 20.2143 
14 *99:124 *99:134 10.6786 
15 *99:134 *99:138 7.08929 
16 *99:138 *933:A 23.425 
17 *99:138 *1106:B 15.7464 
18 *99:134 *1105:B 9.3 
19 *99:124 *1108:A1 13.8 
*END

*D_NET *100 0.000543941
*CONN
*I *931:B1 I *D sky130_fd_sc_hd__a221o_1
*I *927:X O *D sky130_fd_sc_hd__or2_1
*CAP
1 *931:B1 8.02102e-05
2 *927:X 8.02102e-05
3 *931:B1 *931:A2 0.000117207
4 *931:B1 *262:12 0.00022367
5 *931:A1 *931:B1 4.26438e-05
*RES
1 *927:X *931:B1 21.2071 
*END

*D_NET *101 0.000284128
*CONN
*I *931:B2 I *D sky130_fd_sc_hd__a221o_1
*I *928:Y O *D sky130_fd_sc_hd__nand2_1
*CAP
1 *931:B2 7.49896e-05
2 *928:Y 7.49896e-05
3 *931:B2 *928:B 3.9733e-05
4 *931:B2 *931:C1 6.45537e-05
5 *931:B2 *126:177 1.58559e-05
6 *931:B2 *262:12 1.4006e-05
*RES
1 *928:Y *931:B2 29.5286 
*END

*D_NET *102 0.0213611
*CONN
*I *939:B I *D sky130_fd_sc_hd__xnor2_1
*I *930:A I *D sky130_fd_sc_hd__xor2_1
*I *946:A I *D sky130_fd_sc_hd__xor2_1
*I *1109:B1 I *D sky130_fd_sc_hd__o31ai_1
*I *1110:A I *D sky130_fd_sc_hd__or4_1
*I *937:A I *D sky130_fd_sc_hd__or2b_1
*I *950:A I *D sky130_fd_sc_hd__xor2_1
*I *934:B I *D sky130_fd_sc_hd__and2b_1
*I *1088:A1 I *D sky130_fd_sc_hd__mux2_1
*I *929:X O *D sky130_fd_sc_hd__clkbuf_4
*CAP
1 *939:B 0
2 *930:A 0
3 *946:A 0.00118776
4 *1109:B1 6.15055e-05
5 *1110:A 0.000283026
6 *937:A 0
7 *950:A 0.00088446
8 *934:B 0
9 *1088:A1 0.000678313
10 *929:X 0.000260733
11 *102:112 0.00219507
12 *102:108 0.00160534
13 *102:54 0.00116857
14 *102:43 0.000414965
15 *102:30 0.00165741
16 *102:18 0.00113127
17 *102:16 0.000710133
18 *102:10 0.00150739
19 *946:A *944:A2 4.58976e-05
20 *946:A *944:B1 0.000273269
21 *946:A *945:B 0.000139907
22 *946:A *946:B 3.50166e-05
23 *946:A *959:C1 0.000357054
24 *946:A *117:12 3.47797e-05
25 *946:A *118:6 0.000394962
26 *946:A *243:35 0
27 *950:A *1020:A1 0
28 *950:A *1075:A 0
29 *950:A *1117:A 0.000229456
30 *950:A *1118:A 0.000103935
31 *950:A *111:12 7.79481e-05
32 *1088:A1 *1020:A0 0.00014285
33 *1088:A1 *1020:S 0.000531286
34 *1088:A1 *1076:S 3.9846e-05
35 *1088:A1 *1208:A 0.000231701
36 *1088:A1 *279:6 0.000183726
37 *1109:B1 *1111:A1 5.33005e-05
38 *1109:B1 *139:55 1.6853e-05
39 *1110:A *1107:B1 2.28916e-05
40 *1110:A *1110:B 9.84729e-05
41 *1110:A *1110:C 8.69355e-05
42 *1110:A *1111:A2 5.46383e-06
43 *1110:A *126:265 0.000104078
44 *1110:A *139:79 0.000178304
45 *1110:A *219:77 5.50052e-05
46 *102:10 *247:26 1.08847e-05
47 *102:10 *247:97 7.91743e-05
48 *102:16 *1111:A1 0.000172517
49 *102:30 *1020:A0 0.00044468
50 *102:30 *1072:A1 8.59075e-05
51 *102:30 *1107:B1 0
52 *102:30 *1211:A 9.90367e-05
53 *102:30 *139:47 4.57956e-05
54 *102:30 *139:79 1.50851e-05
55 *102:30 *224:10 0.000225609
56 *102:30 *355:84 0.000310286
57 *102:43 *1020:A1 8.39e-05
58 *102:43 *1211:A 0
59 *102:43 *245:10 0
60 *102:54 *937:B_N 0.00010466
61 *102:54 *1020:A1 0
62 *102:54 *1075:A 0
63 *102:54 *1188:RESET_B 6.87574e-05
64 *102:108 *942:B 4.88284e-05
65 *102:108 *1247:A 0.000334006
66 *102:108 *247:8 0.00033708
67 *102:108 *247:26 0.000118176
68 *102:112 *930:B 3.29297e-05
69 *102:112 *1123:A 0.000103267
70 *102:112 *246:10 0
71 *102:112 *246:23 0
72 *102:112 *246:38 0
73 *932:B1 *102:112 0
74 *945:A *946:A 2.44318e-05
75 *959:A1 *946:A 1.56e-05
76 *1095:S *102:112 0.0004953
77 *1171:D *950:A 0.000126272
78 *1173:D *102:10 1.00332e-05
79 *1173:D *102:108 7.85137e-05
80 *1185:D *1110:A 1.87331e-05
81 *1189:D *950:A 0.000128161
82 *30:34 *1088:A1 1.59373e-05
83 *30:47 *1088:A1 7.57312e-05
84 *93:213 *950:A 0
85 *93:213 *102:54 0
86 *93:219 *102:43 0
87 *93:219 *102:54 0
88 *99:22 *102:10 0.000139293
89 *99:134 *102:30 5.52238e-05
90 *99:138 *102:30 0.000268403
*RES
1 *929:X *102:10 17.7107 
2 *102:10 *102:16 12.9643 
3 *102:16 *102:18 4.5 
4 *102:18 *102:30 22.3571 
5 *102:30 *1088:A1 23.3893 
6 *102:30 *102:43 11.5536 
7 *102:43 *934:B 9.3 
8 *102:43 *102:54 10.0357 
9 *102:54 *950:A 31.2464 
10 *102:54 *937:A 13.8 
11 *102:18 *1110:A 20.2286 
12 *102:16 *1109:B1 10.5679 
13 *102:10 *102:108 14.4464 
14 *102:108 *102:112 24.3571 
15 *102:112 *946:A 41.4429 
16 *102:112 *930:A 9.3 
17 *102:108 *939:B 13.8 
*END

*D_NET *103 0.000760899
*CONN
*I *931:C1 I *D sky130_fd_sc_hd__a221o_1
*I *930:X O *D sky130_fd_sc_hd__xor2_1
*CAP
1 *931:C1 0.000348173
2 *930:X 0.000348173
3 *931:B2 *931:C1 6.45537e-05
*RES
1 *930:X *931:C1 33.0286 
*END

*D_NET *104 0.000951341
*CONN
*I *932:C1 I *D sky130_fd_sc_hd__a211o_1
*I *931:X O *D sky130_fd_sc_hd__a221o_1
*CAP
1 *932:C1 0.000132789
2 *931:X 0.000132789
3 *932:C1 *126:177 0.000315381
4 *932:C1 *262:12 5.49995e-05
5 *932:C1 *326:130 0.000315383
*RES
1 *931:X *932:C1 32.2071 
*END

*D_NET *105 0.00334271
*CONN
*I *952:A I *D sky130_fd_sc_hd__and4_1
*I *958:A_N I *D sky130_fd_sc_hd__and4b_1
*I *932:X O *D sky130_fd_sc_hd__a211o_1
*CAP
1 *952:A 0
2 *958:A_N 0.000278466
3 *932:X 0.000574143
4 *105:10 0.000852609
5 *958:A_N *958:C 0.000399841
6 *958:A_N *967:B1 0.000125731
7 *958:A_N *1091:A2 0
8 *958:A_N *1094:B1 3.34295e-05
9 *958:A_N *1116:A1 6.05161e-06
10 *105:10 *952:B 4.87953e-05
11 *105:10 *952:D 3.32631e-05
12 *105:10 *1124:A 0.000572652
13 *105:10 *1202:A 5.33005e-05
14 *105:10 *1268:A 5.71472e-05
15 *105:10 *125:10 3.18676e-05
16 *105:10 *213:20 9.0145e-05
17 *1095:S *105:10 0.00018527
*RES
1 *932:X *105:10 22.7107 
2 *105:10 *958:A_N 24.4964 
3 *105:10 *952:A 9.3 
*END

*D_NET *106 0.000967869
*CONN
*I *935:B2 I *D sky130_fd_sc_hd__a221oi_2
*I *938:A1 I *D sky130_fd_sc_hd__o2111a_1
*I *933:Y O *D sky130_fd_sc_hd__inv_2
*CAP
1 *935:B2 0
2 *938:A1 0.000127726
3 *933:Y 0.000148099
4 *106:10 0.000275825
5 *938:A1 *935:B1 7.6323e-05
6 *938:A1 *938:C1 2.84026e-05
7 *938:A1 *108:12 0.000119908
8 *938:A1 *253:20 3.22057e-05
9 *938:A1 *375:20 8.46259e-06
10 *106:10 *253:20 1.21309e-05
11 *106:10 *375:20 0.000106272
12 *933:A *106:10 3.25134e-05
*RES
1 *933:Y *106:10 16.3893 
2 *106:10 *938:A1 16.8893 
3 *106:10 *935:B2 13.8 
*END

*D_NET *107 0.00173453
*CONN
*I *935:C1 I *D sky130_fd_sc_hd__a221oi_2
*I *934:X O *D sky130_fd_sc_hd__and2b_1
*CAP
1 *935:C1 0.0004901
2 *934:X 0.0004901
3 *935:C1 *938:D1 0.000105416
4 *935:C1 *1188:RESET_B 0.000441731
5 *935:C1 *1200:A 1.32056e-05
6 *935:C1 *239:22 2.36643e-05
7 *935:C1 *375:10 5.33005e-05
8 *935:C1 *375:20 0
9 *93:213 *935:C1 3.00744e-05
10 *93:219 *935:C1 8.69392e-05
*RES
1 *934:X *935:C1 37.9571 
*END

*D_NET *108 0.00233928
*CONN
*I *943:A1 I *D sky130_fd_sc_hd__a21oi_1
*I *963:B I *D sky130_fd_sc_hd__nand3b_1
*I *965:A1 I *D sky130_fd_sc_hd__a21o_1
*I *935:Y O *D sky130_fd_sc_hd__a221oi_2
*CAP
1 *943:A1 5.47245e-05
2 *963:B 0.000103144
3 *965:A1 2.52972e-05
4 *935:Y 0.000298633
5 *108:21 0.000228063
6 *108:12 0.000394125
7 *943:A1 *943:A2 4.33899e-05
8 *943:A1 *115:28 2.9251e-05
9 *963:B *938:C1 6.91613e-06
10 *963:B *943:A2 3.12359e-05
11 *963:B *963:C 0.000125599
12 *963:B *239:18 7.24369e-05
13 *963:B *253:20 1.64026e-05
14 *965:A1 *111:23 3.50166e-05
15 *965:A1 *115:28 1.61981e-05
16 *108:12 *935:B1 1.45648e-05
17 *108:12 *239:22 0.000178425
18 *108:12 *253:20 0.000309035
19 *108:21 *943:A2 5.49544e-05
20 *108:21 *111:23 0.000135028
21 *108:21 *115:28 2.36643e-05
22 *108:21 *137:10 1.32185e-05
23 *938:A1 *108:12 0.000119908
24 *98:30 *963:B 1.00477e-05
*RES
1 *935:Y *108:12 24.1393 
2 *108:12 *965:A1 10.0321 
3 *108:12 *108:21 1.76786 
4 *108:21 *963:B 20.9964 
5 *108:21 *943:A1 10.675 
*END

*D_NET *109 0.00133082
*CONN
*I *938:C1 I *D sky130_fd_sc_hd__o2111a_1
*I *936:X O *D sky130_fd_sc_hd__or2b_1
*CAP
1 *938:C1 0.000507422
2 *936:X 0.000507422
3 *938:C1 *938:B1 5.49489e-05
4 *938:C1 *963:A_N 1.18321e-05
5 *938:C1 *963:C 9.77438e-06
6 *938:C1 *1092:A1 7.74135e-05
7 *938:C1 *135:6 2.85321e-05
8 *938:C1 *239:18 7.74135e-05
9 *938:C1 *362:27 2.07394e-05
10 *938:A1 *938:C1 2.84026e-05
11 *963:B *938:C1 6.91613e-06
*RES
1 *936:X *938:C1 34.1 
*END

*D_NET *110 0.000946412
*CONN
*I *938:D1 I *D sky130_fd_sc_hd__o2111a_1
*I *937:X O *D sky130_fd_sc_hd__or2b_1
*CAP
1 *938:D1 0.000233373
2 *937:X 0.000233373
3 *938:D1 *375:20 5.77037e-05
4 *935:C1 *938:D1 0.000105416
5 *93:213 *938:D1 0.000316546
*RES
1 *937:X *938:D1 32.9393 
*END

*D_NET *111 0.00201578
*CONN
*I *963:C I *D sky130_fd_sc_hd__nand3b_1
*I *943:A2 I *D sky130_fd_sc_hd__a21oi_1
*I *965:A2 I *D sky130_fd_sc_hd__a21o_1
*I *938:X O *D sky130_fd_sc_hd__o2111a_1
*CAP
1 *963:C 7.5586e-05
2 *943:A2 4.44946e-05
3 *965:A2 0
4 *938:X 0.000299315
5 *111:23 0.000261824
6 *111:12 0.000441059
7 *943:A2 *963:A_N 5.48715e-05
8 *943:A2 *115:28 9.99853e-05
9 *963:C *963:A_N 0.000176071
10 *938:C1 *963:C 9.77438e-06
11 *943:A1 *943:A2 4.33899e-05
12 *950:A *111:12 7.79481e-05
13 *963:B *943:A2 3.12359e-05
14 *963:B *963:C 0.000125599
15 *965:A1 *111:23 3.50166e-05
16 *93:213 *111:12 4.96258e-05
17 *108:21 *943:A2 5.49544e-05
18 *108:21 *111:23 0.000135028
*RES
1 *938:X *111:12 24.0679 
2 *111:12 *965:A2 9.3 
3 *111:12 *111:23 7 
4 *111:23 *943:A2 15.4786 
5 *111:23 *963:C 16.3446 
*END

*D_NET *112 0.00102352
*CONN
*I *962:A I *D sky130_fd_sc_hd__nand3_1
*I *942:B I *D sky130_fd_sc_hd__and4_1
*I *939:Y O *D sky130_fd_sc_hd__xnor2_1
*CAP
1 *962:A 0.000126185
2 *942:B 0.000166505
3 *939:Y 0
4 *112:4 0.00029269
5 *942:B *939:A 1.13883e-05
6 *962:A *939:A 0.000143673
7 *962:A *942:C 9.58689e-05
8 *962:A *962:C 0.000138381
9 *102:108 *942:B 4.88284e-05
*RES
1 *939:Y *112:4 9.3 
2 *112:4 *942:B 20.7821 
3 *112:4 *962:A 12.925 
*END

*D_NET *113 0.00444574
*CONN
*I *962:B I *D sky130_fd_sc_hd__nand3_1
*I *942:C I *D sky130_fd_sc_hd__and4_1
*I *940:Y O *D sky130_fd_sc_hd__xnor2_1
*CAP
1 *962:B 0
2 *942:C 0.000263563
3 *940:Y 0.0004469
4 *113:8 0.000710463
5 *942:C *939:A 0.000139338
6 *942:C *942:A 0.000100155
7 *942:C *942:D 7.1411e-05
8 *942:C *962:C 0.000240435
9 *942:C *1142:CLK 6.68086e-05
10 *942:C *134:12 5.07426e-05
11 *942:C *246:46 0.000169233
12 *942:C *246:48 1.76096e-05
13 *942:C *246:52 6.18487e-05
14 *113:8 *939:A 0.00085286
15 *113:8 *962:C 4.97967e-05
16 *113:8 *1007:A0 0.000568822
17 *113:8 *294:14 8.34321e-05
18 *113:8 *326:130 0.000112708
19 *113:8 *360:12 0.000136727
20 *962:A *942:C 9.58689e-05
21 *1141:D *113:8 2.33087e-05
22 *1174:D *113:8 0.000183711
*RES
1 *940:Y *113:8 23.4071 
2 *113:8 *942:C 27.2464 
3 *113:8 *962:B 9.3 
*END

*D_NET *114 0.00255821
*CONN
*I *942:D I *D sky130_fd_sc_hd__and4_1
*I *962:C I *D sky130_fd_sc_hd__nand3_1
*I *941:Y O *D sky130_fd_sc_hd__xnor2_1
*CAP
1 *942:D 0.000177949
2 *962:C 0.000342004
3 *941:Y 0.00032101
4 *114:8 0.000840963
5 *942:D *942:A 0.000186817
6 *962:C *134:12 5.79582e-06
7 *114:8 *134:12 3.66572e-05
8 *114:8 *247:8 0
9 *114:8 *256:696 0.000146994
10 *942:C *942:D 7.1411e-05
11 *942:C *962:C 0.000240435
12 *962:A *962:C 0.000138381
13 *113:8 *962:C 4.97967e-05
*RES
1 *941:Y *114:8 19.6929 
2 *114:8 *962:C 19.9786 
3 *114:8 *942:D 16.3893 
*END

*D_NET *115 0.00407472
*CONN
*I *1091:A1 I *D sky130_fd_sc_hd__o21ai_1
*I *943:B1 I *D sky130_fd_sc_hd__a21oi_1
*I *965:B1 I *D sky130_fd_sc_hd__a21o_1
*I *963:A_N I *D sky130_fd_sc_hd__nand3b_1
*I *942:X O *D sky130_fd_sc_hd__and4_1
*CAP
1 *1091:A1 3.89716e-05
2 *943:B1 0
3 *965:B1 0
4 *963:A_N 9.94184e-05
5 *942:X 0.000425527
6 *115:28 0.000243602
7 *115:22 0.000354616
8 *115:14 0.000674931
9 *963:A_N *253:20 0.000172285
10 *1091:A1 *1091:B1 1.01794e-05
11 *115:14 *964:A1 0.000202833
12 *115:14 *964:A2 8.29898e-05
13 *115:14 *964:B1 1.84776e-05
14 *115:14 *246:52 0.000670769
15 *115:14 *374:17 3.67252e-05
16 *115:22 *967:C1 0.00015078
17 *115:22 *1091:A2 0.00015078
18 *115:22 *116:10 2.59355e-05
19 *115:22 *127:28 9.61273e-05
20 *115:22 *129:59 6.93626e-06
21 *115:28 *137:10 9.91033e-05
22 *938:C1 *963:A_N 1.18321e-05
23 *943:A1 *115:28 2.9251e-05
24 *943:A2 *963:A_N 5.48715e-05
25 *943:A2 *115:28 9.99853e-05
26 *963:C *963:A_N 0.000176071
27 *965:A1 *115:28 1.61981e-05
28 *1187:D *115:14 7.88091e-05
29 *98:30 *115:22 1.4796e-05
30 *98:30 *115:28 8.25843e-06
31 *108:21 *115:28 2.36643e-05
*RES
1 *942:X *115:14 22.0321 
2 *115:14 *115:22 14.25 
3 *115:22 *115:28 3.44643 
4 *115:28 *963:A_N 21.4875 
5 *115:28 *965:B1 9.3 
6 *115:22 *943:B1 9.3 
7 *115:14 *1091:A1 10.1571 
*END

*D_NET *116 0.00365897
*CONN
*I *958:B I *D sky130_fd_sc_hd__and4b_1
*I *952:B I *D sky130_fd_sc_hd__and4_1
*I *961:A1 I *D sky130_fd_sc_hd__a31o_1
*I *943:Y O *D sky130_fd_sc_hd__a21oi_1
*CAP
1 *958:B 1.1624e-05
2 *952:B 0.000104833
3 *961:A1 7.45455e-05
4 *943:Y 0.000293028
5 *116:18 0.00053724
6 *116:10 0.000662513
7 *952:B *960:A 9.90431e-05
8 *952:B *961:B1 4.27935e-05
9 *952:B *213:20 7.48301e-06
10 *958:B *958:C 5.52238e-05
11 *958:B *239:18 5.52238e-05
12 *961:A1 *961:B1 0.000128146
13 *961:A1 *1094:B1 5.25998e-05
14 *961:A1 *377:27 1.17968e-05
15 *116:10 *1091:A2 0
16 *116:10 *127:28 5.40745e-05
17 *116:10 *137:42 0.00012401
18 *116:10 *239:18 0.000547925
19 *116:18 *960:A 8.46829e-05
20 *116:18 *961:B1 5.33005e-05
21 *116:18 *1094:B1 1.74352e-05
22 *116:18 *1119:A1 1.00073e-05
23 *116:18 *1119:A3 2.44318e-05
24 *116:18 *1119:B1 0.000139907
25 *116:18 *1120:B 5.80706e-06
26 *116:18 *137:42 0.000170654
27 *116:18 *239:55 0
28 *98:30 *116:10 7.56991e-05
29 *98:30 *116:18 0.000105582
30 *98:38 *116:18 3.46272e-05
31 *105:10 *952:B 4.87953e-05
32 *115:22 *116:10 2.59355e-05
*RES
1 *943:Y *116:10 22.05 
2 *116:10 *116:18 11.8036 
3 *116:18 *961:A1 20.2464 
4 *116:18 *952:B 11.4786 
5 *116:10 *958:B 14.3357 
*END

*D_NET *117 0.00158725
*CONN
*I *959:B1 I *D sky130_fd_sc_hd__a2111oi_1
*I *947:B1 I *D sky130_fd_sc_hd__a2111o_1
*I *944:Y O *D sky130_fd_sc_hd__o21ai_1
*CAP
1 *959:B1 0
2 *947:B1 0.000120834
3 *944:Y 0.000285731
4 *117:12 0.000406565
5 *947:B1 *947:A2 5.49865e-05
6 *947:B1 *959:A2 8.43535e-06
7 *947:B1 *959:D1 0.000271439
8 *117:12 *959:C1 0.000121897
9 *117:12 *243:35 6.66211e-05
10 *946:A *117:12 3.47797e-05
11 *959:A1 *947:B1 7.60658e-05
12 *959:A1 *117:12 0.0001399
*RES
1 *944:Y *117:12 22.8357 
2 *117:12 *947:B1 12.7107 
3 *117:12 *959:B1 9.3 
*END

*D_NET *118 0.00273729
*CONN
*I *959:C1 I *D sky130_fd_sc_hd__a2111oi_1
*I *947:C1 I *D sky130_fd_sc_hd__a2111o_1
*I *945:X O *D sky130_fd_sc_hd__xor2_1
*CAP
1 *959:C1 0.000357395
2 *947:C1 0.000164163
3 *945:X 0.000275836
4 *118:6 0.000797393
5 *947:C1 *944:B1 6.82514e-05
6 *947:C1 *239:59 0
7 *947:C1 *367:23 0
8 *947:C1 *367:36 0
9 *959:C1 *243:35 4.36401e-05
10 *959:C1 *367:23 2.66026e-05
11 *959:C1 *367:36 6.8646e-06
12 *946:A *959:C1 0.000357054
13 *946:A *118:6 0.000394962
14 *959:A1 *959:C1 5.65547e-05
15 *98:59 *947:C1 6.66813e-05
16 *117:12 *959:C1 0.000121897
*RES
1 *945:X *118:6 13.1214 
2 *118:6 *947:C1 21.4607 
3 *118:6 *959:C1 24.8714 
*END

*D_NET *119 0.00232601
*CONN
*I *959:D1 I *D sky130_fd_sc_hd__a2111oi_1
*I *947:D1 I *D sky130_fd_sc_hd__a2111o_1
*I *946:X O *D sky130_fd_sc_hd__xor2_1
*CAP
1 *959:D1 0.000150371
2 *947:D1 0
3 *946:X 0.000495017
4 *119:14 0.000645388
5 *959:D1 *120:22 0.000206237
6 *119:14 *1120:A 0
7 *119:14 *120:22 4.4545e-05
8 *119:14 *253:56 0.000153502
9 *119:14 *325:54 8.74791e-05
10 *947:B1 *959:D1 0.000271439
11 *949:A *119:14 0.000272028
*RES
1 *946:X *119:14 28.0857 
2 *119:14 *947:D1 9.3 
3 *119:14 *959:D1 13.4429 
*END

*D_NET *120 0.00454943
*CONN
*I *958:C I *D sky130_fd_sc_hd__and4b_1
*I *952:C I *D sky130_fd_sc_hd__and4_1
*I *1094:A1 I *D sky130_fd_sc_hd__a21oi_1
*I *947:X O *D sky130_fd_sc_hd__a2111o_1
*CAP
1 *958:C 0.000292679
2 *952:C 0
3 *1094:A1 4.09388e-05
4 *947:X 0.000568797
5 *120:33 0.000336271
6 *120:22 0.000653328
7 *958:C *958:D 0
8 *958:C *967:B1 9.39674e-05
9 *958:C *1116:A1 7.86964e-05
10 *958:C *1202:A 0.000426338
11 *958:C *125:10 7.15591e-05
12 *958:C *129:10 8.50152e-05
13 *958:C *213:20 8.07951e-05
14 *958:C *239:18 0.000109926
15 *958:C *239:51 4.18895e-05
16 *1094:A1 *961:A2 5.52238e-05
17 *120:22 *952:D 2.3622e-05
18 *120:22 *967:B1 2.92701e-05
19 *120:22 *1276:A 0.000307991
20 *120:22 *124:63 7.77638e-05
21 *120:22 *213:20 1.81148e-05
22 *120:22 *266:16 0.000120368
23 *120:33 *967:B1 6.07328e-05
24 *120:33 *213:20 0.000122339
25 *958:A_N *958:C 0.000399841
26 *958:B *958:C 5.52238e-05
27 *959:D1 *120:22 0.000206237
28 *98:53 *120:22 0.00014796
29 *119:14 *120:22 4.4545e-05
*RES
1 *947:X *120:22 26.1929 
2 *120:22 *1094:A1 14.3357 
3 *120:22 *120:33 1.64286 
4 *120:33 *952:C 13.8 
5 *120:33 *958:C 23.9071 
*END

*D_NET *121 0.0010329
*CONN
*I *951:B1 I *D sky130_fd_sc_hd__a2111o_2
*I *948:Y O *D sky130_fd_sc_hd__o21ai_1
*CAP
1 *951:B1 0.000260588
2 *948:Y 0.000260588
3 *951:B1 *951:A2 9.83388e-05
4 *951:B1 *951:C1 5.49489e-05
5 *951:B1 *124:10 0.000180026
6 *951:B1 *124:14 0.000150005
7 *951:B1 *256:471 0
8 *948:A1 *951:B1 2.84026e-05
*RES
1 *948:Y *951:B1 33.1536 
*END

*D_NET *122 0.000819093
*CONN
*I *951:C1 I *D sky130_fd_sc_hd__a2111o_2
*I *949:X O *D sky130_fd_sc_hd__xor2_1
*CAP
1 *951:C1 0.000259824
2 *949:X 0.000259824
3 *951:C1 *951:A2 2.36643e-05
4 *951:C1 *124:10 0.000112503
5 *951:C1 *253:56 0.000108329
6 *951:B1 *951:C1 5.49489e-05
7 *93:213 *951:C1 0
*RES
1 *949:X *951:C1 33.2786 
*END

*D_NET *123 0.00207576
*CONN
*I *951:D1 I *D sky130_fd_sc_hd__a2111o_2
*I *950:X O *D sky130_fd_sc_hd__xor2_1
*CAP
1 *951:D1 0.000538184
2 *950:X 0.000538184
3 *951:D1 *948:A2 0.000119618
4 *951:D1 *948:B1 0
5 *951:D1 *951:A2 0.000250222
6 *951:D1 *1117:A 0.000129595
7 *951:D1 *1117:B 3.14048e-05
8 *951:D1 *124:10 9.35794e-06
9 *951:D1 *124:14 0
10 *93:213 *951:D1 0.000459198
*RES
1 *950:X *951:D1 38.2607 
*END

*D_NET *124 0.00643465
*CONN
*I *961:A3 I *D sky130_fd_sc_hd__a31o_1
*I *952:D I *D sky130_fd_sc_hd__and4_1
*I *1090:B I *D sky130_fd_sc_hd__nand2_1
*I *1094:A2 I *D sky130_fd_sc_hd__a21oi_1
*I *958:D I *D sky130_fd_sc_hd__and4b_1
*I *966:A2 I *D sky130_fd_sc_hd__o21ai_1
*I *1116:A3 I *D sky130_fd_sc_hd__o31a_1
*I *951:X O *D sky130_fd_sc_hd__a2111o_2
*CAP
1 *961:A3 1.98239e-05
2 *952:D 0.000176911
3 *1090:B 1.16777e-05
4 *1094:A2 0
5 *958:D 5.05731e-05
6 *966:A2 0.000300747
7 *1116:A3 1.69531e-05
8 *951:X 0.000263584
9 *124:65 1.16777e-05
10 *124:63 0.000438555
11 *124:55 0.000746255
12 *124:23 0.000423117
13 *124:14 0.000217575
14 *124:10 0.000857196
15 *952:D *961:A2 0.000115759
16 *952:D *213:20 5.49643e-05
17 *958:D *1116:A2 0
18 *961:A3 *1094:B1 3.49456e-06
19 *966:A2 *137:10 0
20 *1090:B *961:A2 5.52302e-05
21 *1090:B *266:16 5.50052e-05
22 *1116:A3 *1116:A1 5.33005e-05
23 *1116:A3 *1116:A2 5.33005e-05
24 *124:10 *951:A2 4.53295e-05
25 *124:10 *253:56 0.000179154
26 *124:14 *948:B1 0.000146208
27 *124:14 *253:56 0.000325333
28 *124:23 *1116:A1 0.000254691
29 *124:23 *1116:A2 5.52302e-05
30 *124:23 *130:10 2.16988e-05
31 *124:23 *253:56 1.39726e-05
32 *124:55 *961:A2 2.11336e-05
33 *124:55 *1120:A 2.85321e-05
34 *124:55 *253:56 3.39618e-05
35 *124:55 *256:471 0.000265205
36 *124:55 *364:6 5.54283e-05
37 *124:63 *961:A2 1.25692e-05
38 *124:63 *1094:B1 4.77002e-05
39 *124:63 *1095:A1 0.000136727
40 *951:A1 *124:10 5.66472e-05
41 *951:B1 *124:10 0.000180026
42 *951:B1 *124:14 0.000150005
43 *951:C1 *124:10 0.000112503
44 *951:D1 *124:10 9.35794e-06
45 *951:D1 *124:14 0
46 *958:C *958:D 0
47 *98:30 *966:A2 0.000222885
48 *105:10 *952:D 3.32631e-05
49 *120:22 *952:D 2.3622e-05
50 *120:22 *124:63 7.77638e-05
*RES
1 *951:X *124:10 19.9161 
2 *124:10 *124:14 9.33036 
3 *124:14 *1116:A3 9.83571 
4 *124:14 *124:23 2.58929 
5 *124:23 *966:A2 22.925 
6 *124:23 *958:D 10.2688 
7 *124:10 *124:55 13.2589 
8 *124:55 *124:63 8.55357 
9 *124:63 *124:65 4.5 
10 *124:65 *1094:A2 9.3 
11 *124:65 *1090:B 9.83571 
12 *124:63 *952:D 17.05 
13 *124:55 *961:A3 9.72857 
*END

*D_NET *125 0.00141329
*CONN
*I *955:A_N I *D sky130_fd_sc_hd__and3b_1
*I *1099:B I *D sky130_fd_sc_hd__nand2_2
*I *952:X O *D sky130_fd_sc_hd__and4_1
*CAP
1 *955:A_N 0.000219663
2 *1099:B 0
3 *952:X 0.000233899
4 *125:10 0.000453562
5 *955:A_N *955:B 0.000120732
6 *955:A_N *955:C 2.85234e-05
7 *955:A_N *1186:CLK 5.49311e-05
8 *955:A_N *129:48 1.12301e-05
9 *955:A_N *373:24 4.1331e-06
10 *125:10 *1202:A 0
11 *125:10 *129:10 1.37292e-05
12 *125:10 *129:48 4.57445e-05
13 *125:10 *213:20 9.25014e-06
14 *125:10 *373:24 4.48206e-05
15 *958:C *125:10 7.15591e-05
16 *30:22 *955:A_N 6.96489e-05
17 *105:10 *125:10 3.18676e-05
*RES
1 *952:X *125:10 18.4071 
2 *125:10 *1099:B 13.8 
3 *125:10 *955:A_N 19.3179 
*END

*D_NET *126 0.0362557
*CONN
*I *1078:S I *D sky130_fd_sc_hd__mux2_1
*I *954:A I *D sky130_fd_sc_hd__inv_2
*I *1072:S I *D sky130_fd_sc_hd__mux2_1
*I *1111:B1 I *D sky130_fd_sc_hd__a21oi_1
*I *1080:S I *D sky130_fd_sc_hd__mux2_1
*I *1082:S I *D sky130_fd_sc_hd__mux2_1
*I *1123:A I *D sky130_fd_sc_hd__or2_1
*I *1054:S I *D sky130_fd_sc_hd__mux2_1
*I *1056:S I *D sky130_fd_sc_hd__mux2_1
*I *1058:S I *D sky130_fd_sc_hd__mux2_1
*I *1060:S I *D sky130_fd_sc_hd__mux2_1
*I *1062:S I *D sky130_fd_sc_hd__mux2_1
*I *1120:A I *D sky130_fd_sc_hd__or2_1
*I *1064:S I *D sky130_fd_sc_hd__mux2_1
*I *1117:A I *D sky130_fd_sc_hd__or2_1
*I *1076:S I *D sky130_fd_sc_hd__mux2_1
*I *1074:S I *D sky130_fd_sc_hd__mux2_1
*I *1070:S I *D sky130_fd_sc_hd__mux2_1
*I *1066:S I *D sky130_fd_sc_hd__mux2_1
*I *1068:S I *D sky130_fd_sc_hd__mux2_1
*I *953:X O *D sky130_fd_sc_hd__buf_6
*CAP
1 *1078:S 0
2 *954:A 2.04856e-05
3 *1072:S 0.000112354
4 *1111:B1 1.98751e-05
5 *1080:S 6.38759e-05
6 *1082:S 9.01028e-05
7 *1123:A 0.000561483
8 *1054:S 0.000167927
9 *1056:S 0
10 *1058:S 5.3306e-05
11 *1060:S 9.04909e-05
12 *1062:S 0
13 *1120:A 0.000937872
14 *1064:S 0
15 *1117:A 0.000226932
16 *1076:S 0.000246081
17 *1074:S 0
18 *1070:S 0.000126942
19 *1066:S 2.38914e-05
20 *1068:S 2.99985e-05
21 *953:X 0
22 *126:265 0.00100965
23 *126:242 0.00170456
24 *126:228 0.00166131
25 *126:202 0.000350776
26 *126:198 0.00164247
27 *126:177 0.00158128
28 *126:161 0.000530956
29 *126:157 0.0010773
30 *126:144 0.000789554
31 *126:69 0.000868142
32 *126:58 0.000964677
33 *126:54 0.000558294
34 *126:43 0.000483976
35 *126:32 0.000803707
36 *126:26 0.0010621
37 *126:22 0.00196315
38 *126:14 0.000690095
39 *126:10 0.00129296
40 *126:4 0.00135441
41 *954:A *1072:A0 5.38444e-06
42 *1054:S *1054:A1 5.66971e-05
43 *1054:S *1056:A0 8.2817e-05
44 *1054:S *1056:A1 0.000182806
45 *1058:S *1224:A 2.89114e-05
46 *1060:S *1060:A0 3.07555e-05
47 *1060:S *1060:A1 7.79937e-05
48 *1060:S *1199:A 0
49 *1060:S *239:59 0
50 *1060:S *324:70 0
51 *1066:S *1066:A0 6.05161e-06
52 *1066:S *1066:A1 5.66971e-05
53 *1066:S *1167:CLK 9.84673e-05
54 *1068:S *1039:A0 3.11088e-05
55 *1068:S *1068:A0 5.49995e-05
56 *1068:S *275:14 2.38501e-05
57 *1068:S *325:54 7.62237e-05
58 *1070:S *1070:A0 0.00018372
59 *1070:S *1070:A1 3.14078e-05
60 *1070:S *1154:RESET_B 2.89114e-05
61 *1072:S *1072:A0 0.000146187
62 *1076:S *1020:S 9.71197e-05
63 *1076:S *162:27 0.000199539
64 *1076:S *256:344 3.34295e-05
65 *1076:S *256:354 0.000166269
66 *1076:S *256:367 0.000190155
67 *1076:S *279:6 9.80173e-05
68 *1080:S *1175:RESET_B 7.22772e-05
69 *1082:S *294:14 3.29297e-05
70 *1082:S *324:120 0.000215108
71 *1082:S *360:12 7.74068e-05
72 *1117:A *1020:A1 0.000128161
73 *1117:A *1118:A 4.01768e-05
74 *1117:A *256:292 0
75 *1120:A *945:B 0.000100726
76 *1120:A *1062:A0 0.00020042
77 *1120:A *1121:A 4.87841e-05
78 *1120:A *1190:RESET_B 0.000169856
79 *1120:A *239:55 0
80 *1120:A *253:56 0
81 *1120:A *256:165 7.71642e-05
82 *1120:A *256:471 0.000124012
83 *1120:A *324:70 8.46495e-05
84 *1120:A *325:54 8.04472e-05
85 *1120:A *368:8 2.82057e-05
86 *1123:A *1123:B 9.99853e-05
87 *1123:A *1124:A 2.37144e-05
88 *1123:A *1174:CLK 3.63775e-05
89 *1123:A *1191:CLK 2.22999e-05
90 *1123:A *246:23 0
91 *126:10 *243:10 0.000271077
92 *126:14 *1062:A0 3.32737e-05
93 *126:22 *1062:A0 3.07334e-05
94 *126:22 *1062:A1 2.84026e-05
95 *126:22 *1063:A 1.24368e-05
96 *126:22 *253:56 0.000339256
97 *126:26 *1165:CLK 7.3237e-05
98 *126:26 *1165:RESET_B 9.42323e-06
99 *126:26 *256:165 4.12169e-06
100 *126:26 *256:169 7.19785e-05
101 *126:32 *1064:A1 1.02504e-05
102 *126:32 *1168:CLK 0
103 *126:32 *1168:RESET_B 0.000117189
104 *126:32 *256:171 5.59013e-05
105 *126:43 *1020:A1 0.000311584
106 *126:54 *1020:A1 0.00022015
107 *126:54 *256:292 0
108 *126:54 *256:461 7.69776e-06
109 *126:69 *1022:A1 0
110 *126:69 *1022:S 9.1314e-05
111 *126:69 *1070:A0 2.79092e-05
112 *126:69 *1154:RESET_B 0
113 *126:69 *162:27 4.46186e-06
114 *126:69 *256:292 0.000223599
115 *126:69 *256:318 0.000143804
116 *126:69 *256:330 0.000380261
117 *126:69 *256:337 0.0002357
118 *126:69 *256:344 0.000330414
119 *126:144 *1125:B 9.61273e-05
120 *126:144 *1163:RESET_B 6.35892e-05
121 *126:144 *1273:A 0
122 *126:144 *326:115 0.000172895
123 *126:144 *326:130 0.000214847
124 *126:157 *326:130 0.000280683
125 *126:161 *1056:A0 2.38501e-05
126 *126:161 *1056:A1 5.66971e-05
127 *126:177 *928:B 0.000124012
128 *126:177 *932:A1 0.000242889
129 *126:177 *326:130 0.000294848
130 *126:198 *1005:A1 0
131 *126:198 *1174:CLK 0.000214443
132 *126:202 *1083:A 3.4689e-05
133 *126:202 *1175:RESET_B 4.47779e-05
134 *126:228 *1007:S 9.84534e-05
135 *126:228 *1078:A0 0.00010096
136 *126:228 *1078:A1 0
137 *126:228 *1083:A 9.26318e-05
138 *126:228 *1141:CLK 0.000104896
139 *126:228 *1231:A 0.000146591
140 *126:228 *154:33 8.77022e-05
141 *126:242 *929:A 9.99853e-05
142 *126:242 *941:A 0
143 *126:242 *1078:A0 5.52302e-05
144 *126:242 *1078:A1 1.02504e-05
145 *126:242 *1135:CLK 0.000205607
146 *126:242 *1173:RESET_B 0
147 *126:242 *1231:A 5.33786e-05
148 *126:242 *256:682 1.05524e-05
149 *126:242 *256:688 0
150 *126:242 *256:753 0
151 *126:265 *1072:A0 2.93922e-05
152 *126:265 *1106:A 9.58478e-05
153 *126:265 *1107:A2 0.000434819
154 *126:265 *1109:A2 1.66856e-05
155 *126:265 *1111:A1 0.00027032
156 *126:265 *139:55 4.85723e-05
157 *931:A1 *126:198 0
158 *931:A1 *126:228 0
159 *931:B2 *126:177 1.58559e-05
160 *932:B1 *126:177 6.52495e-05
161 *932:C1 *126:177 0.000315381
162 *945:A *1120:A 0.000148514
163 *950:A *1117:A 0.000229456
164 *951:D1 *1117:A 0.000129595
165 *1088:A1 *1076:S 3.9846e-05
166 *1110:A *126:265 0.000104078
167 *1140:D *126:228 0
168 *1168:D *126:32 3.34672e-05
169 *1174:D *1082:S 3.50612e-05
170 *1185:D *1111:B1 7.25873e-06
171 *1185:D *126:265 0.000184503
172 *93:100 *126:26 9.5623e-05
173 *93:100 *126:32 5.33005e-05
174 *93:213 *126:32 0
175 *97:33 *1123:A 0.000342955
176 *98:38 *1120:A 3.68468e-05
177 *99:22 *126:242 0.000323949
178 *99:59 *126:161 0.000119977
179 *99:69 *1120:A 0.000171355
180 *102:112 *1123:A 0.000103267
181 *119:14 *1120:A 0
182 *124:55 *1120:A 2.85321e-05
*RES
1 *953:X *126:4 9.3 
2 *126:4 *126:10 14.2321 
3 *126:10 *126:14 5.26786 
4 *126:14 *126:22 16.375 
5 *126:22 *126:26 8.25 
6 *126:26 *126:32 12.75 
7 *126:32 *1068:S 15.1571 
8 *126:32 *126:43 7.10714 
9 *126:43 *1066:S 14.7464 
10 *126:43 *126:54 2.85714 
11 *126:54 *126:58 7.91071 
12 *126:58 *1070:S 12.3 
13 *126:58 *126:69 21.3214 
14 *126:69 *1074:S 13.8 
15 *126:69 *1076:S 21.3714 
16 *126:54 *1117:A 20.0143 
17 *126:26 *1064:S 9.3 
18 *126:22 *1120:A 37.8536 
19 *126:14 *1062:S 9.3 
20 *126:10 *1060:S 20.2464 
21 *126:4 *126:144 14.5 
22 *126:144 *1058:S 14.7643 
23 *126:144 *126:157 6.80357 
24 *126:157 *126:161 11.1964 
25 *126:161 *1056:S 9.3 
26 *126:161 *1054:S 13.1214 
27 *126:157 *126:177 16.1607 
28 *126:177 *1123:A 26.8714 
29 *126:177 *126:198 13.125 
30 *126:198 *126:202 7.91071 
31 *126:202 *1082:S 21.1571 
32 *126:202 *1080:S 10.6571 
33 *126:198 *126:228 22.7321 
34 *126:228 *126:242 25.6607 
35 *126:242 *1111:B1 9.83571 
36 *126:242 *126:265 25.3214 
37 *126:265 *1072:S 11.8893 
38 *126:265 *954:A 9.72857 
39 *126:228 *1078:S 9.3 
*END

*D_NET *127 0.00758581
*CONN
*I *1108:C1 I *D sky130_fd_sc_hd__o211a_1
*I *1102:A I *D sky130_fd_sc_hd__and3_1
*I *1113:A I *D sky130_fd_sc_hd__nand2_1
*I *1115:A I *D sky130_fd_sc_hd__nand2_1
*I *955:C I *D sky130_fd_sc_hd__and3b_1
*I *968:B1 I *D sky130_fd_sc_hd__o21ai_1
*I *954:Y O *D sky130_fd_sc_hd__inv_2
*CAP
1 *1108:C1 0
2 *1102:A 0.00016487
3 *1113:A 0.000179971
4 *1115:A 4.57864e-05
5 *955:C 0.000261728
6 *968:B1 4.9748e-05
7 *954:Y 0.000281792
8 *127:61 0.000609317
9 *127:28 0.00103658
10 *127:22 0.00083186
11 *127:20 0.000673777
12 *127:16 0.000630125
13 *968:B1 *1186:CLK 0.000124012
14 *968:B1 *219:22 0.00015091
15 *1102:A *1100:C 5.33005e-05
16 *1102:A *1188:CLK 3.98517e-05
17 *1113:A *1112:A1 0.000137639
18 *1113:A *1115:B 0
19 *1113:A *1203:A 0.000139331
20 *1113:A *129:59 1.00887e-05
21 *1113:A *139:23 6.69141e-05
22 *1113:A *219:28 0.000200406
23 *127:16 *1092:A1 2.53878e-05
24 *127:16 *1104:A 1.63602e-05
25 *127:16 *1108:A2 4.84073e-05
26 *127:16 *1108:B1 1.87331e-05
27 *127:16 *361:8 7.85137e-05
28 *127:20 *1092:A1 0.000201432
29 *127:20 *1104:B 5.51716e-05
30 *127:20 *219:45 0
31 *127:22 *1092:A1 5.90443e-06
32 *127:28 *1091:A2 6.46482e-05
33 *127:28 *1092:A1 4.01501e-05
34 *127:28 *1114:B1 7.95164e-05
35 *127:28 *1115:B 0
36 *127:28 *129:59 0
37 *127:28 *135:21 2.44553e-05
38 *127:28 *239:18 3.61589e-06
39 *127:61 *1100:C 5.33005e-05
40 *127:61 *1188:CLK 8.53294e-05
41 *955:A_N *955:C 2.85234e-05
42 *1100:A *1113:A 0.000176226
43 *1100:A *127:20 0
44 *1100:A *127:22 0
45 *1100:A *127:28 0
46 *1188:D *1115:A 5.33433e-05
47 *1188:D *127:20 2.48938e-05
48 *1188:D *127:22 7.83659e-05
49 *98:18 *1115:A 5.33433e-05
50 *98:18 *127:28 0.00015136
51 *98:30 *127:28 0.000306727
52 *99:134 *127:20 7.38954e-05
53 *115:22 *127:28 9.61273e-05
54 *116:10 *127:28 5.40745e-05
*RES
1 *954:Y *127:16 23.6929 
2 *127:16 *127:20 12.8214 
3 *127:20 *127:22 1.33929 
4 *127:22 *127:28 17.3571 
5 *127:28 *968:B1 20.2464 
6 *127:28 *955:C 12.3 
7 *127:22 *1115:A 15.175 
8 *127:20 *127:61 7.91071 
9 *127:61 *1113:A 24.0321 
10 *127:61 *1102:A 11.4964 
11 *127:16 *1108:C1 9.3 
*END

*D_NET *128 0.00089431
*CONN
*I *956:A I *D sky130_fd_sc_hd__clkbuf_4
*I *955:X O *D sky130_fd_sc_hd__and3b_1
*CAP
1 *956:A 0.000211952
2 *955:X 0.000211952
3 *956:A *955:B 0.00017697
4 *956:A *1122:A2 0.000142856
5 *956:A *373:12 0
6 *956:A *373:24 5.80706e-06
7 *967:A1 *956:A 0.000144773
*RES
1 *955:X *956:A 33.3321 
*END

*D_NET *129 0.00727028
*CONN
*I *1112:A1 I *D sky130_fd_sc_hd__o21ai_1
*I *1114:A1 I *D sky130_fd_sc_hd__o21ai_1
*I *968:A1 I *D sky130_fd_sc_hd__o21ai_1
*I *1116:A1 I *D sky130_fd_sc_hd__o31a_1
*I *1119:A1 I *D sky130_fd_sc_hd__o31a_1
*I *957:Y O *D sky130_fd_sc_hd__inv_2
*CAP
1 *1112:A1 0.000117495
2 *1114:A1 0
3 *968:A1 0
4 *1116:A1 0.000520504
5 *1119:A1 0.000163865
6 *957:Y 0.000263801
7 *129:59 0.000336054
8 *129:48 0.000508618
9 *129:18 0.00106696
10 *129:10 0.000936454
11 *1112:A1 *936:B_N 0.000198935
12 *1112:A1 *1113:B 2.85321e-05
13 *1112:A1 *1203:A 9.1454e-05
14 *1116:A1 *1116:A2 2.19119e-05
15 *1119:A1 *1094:B1 5.52302e-05
16 *1119:A1 *137:42 7.6644e-05
17 *1119:A1 *239:55 3.69697e-05
18 *129:10 *967:B1 7.83587e-05
19 *129:10 *1202:A 0.000161947
20 *129:10 *373:24 4.51611e-05
21 *129:18 *1091:A2 6.8646e-06
22 *129:18 *1202:A 0.000397911
23 *129:18 *137:42 0.000116481
24 *129:18 *239:18 5.52302e-05
25 *129:18 *239:51 5.52238e-05
26 *129:18 *239:55 5.10822e-05
27 *129:48 *967:B1 0.000118903
28 *129:48 *967:C1 9.30323e-05
29 *129:48 *139:10 0.00014966
30 *129:59 *964:B2 2.06112e-05
31 *129:59 *967:C1 0.000159605
32 *129:59 *1114:A2 0.000125542
33 *129:59 *135:21 0
34 *129:59 *139:10 1.00887e-05
35 *129:59 *139:23 0.000462494
36 *948:A1 *1119:A1 1.93303e-05
37 *955:A_N *129:48 1.12301e-05
38 *958:A_N *1116:A1 6.05161e-06
39 *958:C *1116:A1 7.86964e-05
40 *958:C *129:10 8.50152e-05
41 *1113:A *1112:A1 0.000137639
42 *1113:A *129:59 1.00887e-05
43 *1116:A3 *1116:A1 5.33005e-05
44 *30:22 *129:48 6.18816e-06
45 *115:22 *129:59 6.93626e-06
46 *116:18 *1119:A1 1.00073e-05
47 *124:23 *1116:A1 0.000254691
48 *125:10 *129:10 1.37292e-05
49 *125:10 *129:48 4.57445e-05
50 *127:28 *129:59 0
*RES
1 *957:Y *129:10 19.4786 
2 *129:10 *129:18 15.2857 
3 *129:18 *1119:A1 16.8179 
4 *129:18 *1116:A1 20.7107 
5 *129:10 *129:48 6.26786 
6 *129:48 *968:A1 13.8 
7 *129:48 *129:59 11.6071 
8 *129:59 *1114:A1 9.3 
9 *129:59 *1112:A1 13.1571 
*END

*D_NET *130 0.00799749
*CONN
*I *1097:A1 I *D sky130_fd_sc_hd__mux2_1
*I *967:A2 I *D sky130_fd_sc_hd__o2111a_2
*I *1122:A2 I *D sky130_fd_sc_hd__a21oi_1
*I *958:X O *D sky130_fd_sc_hd__and4b_1
*CAP
1 *1097:A1 0.00129417
2 *967:A2 0
3 *1122:A2 0.000207016
4 *958:X 0.000228351
5 *130:18 0.000686219
6 *130:10 0.00200173
7 *1097:A1 *137:10 0.000172495
8 *1097:A1 *253:20 0.000161915
9 *1122:A2 *219:22 3.98559e-05
10 *130:10 *1116:A2 7.83659e-05
11 *130:10 *137:10 0.000120332
12 *130:10 *253:20 4.60563e-05
13 *130:10 *253:56 0.000136418
14 *130:10 *376:8 7.85137e-05
15 *130:18 *966:B1 6.05161e-06
16 *130:18 *967:C1 1.74352e-05
17 *130:18 *967:D1 0.000705319
18 *130:18 *139:10 0.000139913
19 *130:18 *219:22 9.90367e-05
20 *956:A *1122:A2 0.000142856
21 *967:A1 *1122:A2 0.000242508
22 *30:22 *1097:A1 0.000796109
23 *30:22 *1122:A2 0.000528337
24 *30:82 *1122:A2 4.67911e-05
25 *124:23 *130:10 2.16988e-05
*RES
1 *958:X *130:10 18.1214 
2 *130:10 *130:18 14.2143 
3 *130:18 *1122:A2 16.8536 
4 *130:18 *967:A2 9.3 
5 *130:10 *1097:A1 38.3536 
*END

*D_NET *131 0.00114443
*CONN
*I *1276:A I *D sky130_fd_sc_hd__clkbuf_1
*I *959:Y O *D sky130_fd_sc_hd__a2111oi_1
*CAP
1 *1276:A 0.000275348
2 *959:Y 0.000275348
3 *1276:A *1181:RESET_B 0.000143808
4 *98:53 *1276:A 0.000141935
5 *120:22 *1276:A 0.000307991
*RES
1 *959:Y *1276:A 34.2607 
*END

*D_NET *132 0.000610732
*CONN
*I *961:B1 I *D sky130_fd_sc_hd__a31o_1
*I *960:Y O *D sky130_fd_sc_hd__inv_2
*CAP
1 *961:B1 0.000116003
2 *960:Y 0.000116003
3 *961:B1 *1094:B1 0
4 *961:B1 *377:27 0.000154486
5 *952:B *961:B1 4.27935e-05
6 *961:A1 *961:B1 0.000128146
7 *116:18 *961:B1 5.33005e-05
*RES
1 *960:Y *961:B1 30.4929 
*END

*D_NET *133 0.00135381
*CONN
*I *967:B1 I *D sky130_fd_sc_hd__o2111a_2
*I *961:X O *D sky130_fd_sc_hd__a31o_1
*CAP
1 *967:B1 0.000315941
2 *961:X 0.000315941
3 *967:B1 *967:C1 0
4 *967:B1 *1091:A2 0
5 *967:B1 *1094:B1 0.000198157
6 *967:B1 *266:16 1.6806e-05
7 *958:A_N *967:B1 0.000125731
8 *958:C *967:B1 9.39674e-05
9 *120:22 *967:B1 2.92701e-05
10 *120:33 *967:B1 6.07328e-05
11 *129:10 *967:B1 7.83587e-05
12 *129:48 *967:B1 0.000118903
*RES
1 *961:X *967:B1 35.3143 
*END

*D_NET *134 0.00328007
*CONN
*I *1112:A2 I *D sky130_fd_sc_hd__o21ai_1
*I *964:A2 I *D sky130_fd_sc_hd__a22oi_1
*I *962:Y O *D sky130_fd_sc_hd__nand3_1
*CAP
1 *1112:A2 0
2 *964:A2 0.00024887
3 *962:Y 0.000751834
4 *134:12 0.0010007
5 *964:A2 *964:A1 0.00013931
6 *964:A2 *1113:B 5.54817e-06
7 *134:12 *1112:B1 0.000274036
8 *134:12 *1113:B 1.84865e-05
9 *134:12 *1191:RESET_B 0.000196786
10 *134:12 *1203:A 0.000228876
11 *134:12 *246:46 7.74068e-05
12 *134:12 *256:720 0.000116183
13 *942:C *134:12 5.07426e-05
14 *962:C *134:12 5.79582e-06
15 *1187:D *964:A2 4.58402e-05
16 *114:8 *134:12 3.66572e-05
17 *115:14 *964:A2 8.29898e-05
*RES
1 *962:Y *134:12 33.9964 
2 *134:12 *964:A2 23.3536 
3 *134:12 *1112:A2 9.3 
*END

*D_NET *135 0.00123077
*CONN
*I *1114:A2 I *D sky130_fd_sc_hd__o21ai_1
*I *964:B1 I *D sky130_fd_sc_hd__a22oi_1
*I *1091:B1 I *D sky130_fd_sc_hd__o21ai_1
*I *963:Y O *D sky130_fd_sc_hd__nand3b_1
*CAP
1 *1114:A2 7.24576e-05
2 *964:B1 5.53694e-05
3 *1091:B1 1.81557e-05
4 *963:Y 0.000126705
5 *135:21 0.000292128
6 *135:6 0.000309162
7 *964:B1 *964:A1 1.6572e-05
8 *135:6 *1092:A1 9.47378e-05
9 *135:21 *964:B2 3.10376e-05
10 *135:21 *1092:A1 7.25873e-06
11 *938:C1 *135:6 2.85321e-05
12 *1091:A1 *1091:B1 1.01794e-05
13 *115:14 *964:B1 1.84776e-05
14 *127:28 *135:21 2.44553e-05
15 *129:59 *1114:A2 0.000125542
16 *129:59 *135:21 0
*RES
1 *963:Y *135:6 11.8893 
2 *135:6 *1091:B1 9.72857 
3 *135:6 *135:21 7.53571 
4 *135:21 *964:B1 14.7643 
5 *135:21 *1114:A2 15.4429 
*END

*D_NET *136 0.00125758
*CONN
*I *967:C1 I *D sky130_fd_sc_hd__o2111a_2
*I *964:Y O *D sky130_fd_sc_hd__a22oi_1
*CAP
1 *967:C1 0.000287956
2 *964:Y 0.000287956
3 *967:C1 *967:D1 5.33433e-05
4 *967:C1 *1091:A2 0.000207475
5 *967:B1 *967:C1 0
6 *115:22 *967:C1 0.00015078
7 *129:48 *967:C1 9.30323e-05
8 *129:59 *967:C1 0.000159605
9 *130:18 *967:C1 1.74352e-05
*RES
1 *964:Y *967:C1 36.0643 
*END

*D_NET *137 0.00501028
*CONN
*I *1094:B1 I *D sky130_fd_sc_hd__a21oi_1
*I *1119:A2 I *D sky130_fd_sc_hd__o31a_1
*I *966:A1 I *D sky130_fd_sc_hd__o21ai_1
*I *1116:A2 I *D sky130_fd_sc_hd__o31a_1
*I *965:X O *D sky130_fd_sc_hd__a21o_1
*CAP
1 *1094:B1 0.000315235
2 *1119:A2 0
3 *966:A1 4.07996e-05
4 *1116:A2 0.0001403
5 *965:X 0.000340285
6 *137:42 0.000702583
7 *137:27 0.000503371
8 *137:10 0.000555809
9 *1094:B1 *960:A 9.92409e-05
10 *1094:B1 *961:A2 4.84159e-05
11 *1094:B1 *1095:A1 1.32293e-05
12 *1094:B1 *1119:A3 0.0001399
13 *1094:B1 *1119:B1 2.14658e-05
14 *1094:B1 *213:20 0.000228558
15 *1094:B1 *266:16 0
16 *1116:A2 *948:B1 4.13122e-06
17 *1116:A2 *1116:B1 5.52302e-05
18 *1116:A2 *253:56 8.02124e-05
19 *1116:A2 *376:8 2.09266e-05
20 *137:10 *253:20 5.57515e-05
21 *137:27 *967:D1 3.25192e-05
22 *137:42 *967:D1 9.56618e-05
23 *137:42 *1091:A2 0
24 *137:42 *239:55 6.8646e-06
25 *958:A_N *1094:B1 3.34295e-05
26 *958:D *1116:A2 0
27 *961:A1 *1094:B1 5.25998e-05
28 *961:A3 *1094:B1 3.49456e-06
29 *961:B1 *1094:B1 0
30 *966:A2 *137:10 0
31 *967:B1 *1094:B1 0.000198157
32 *1097:A1 *137:10 0.000172495
33 *1116:A1 *1116:A2 2.19119e-05
34 *1116:A3 *1116:A2 5.33005e-05
35 *1119:A1 *1094:B1 5.52302e-05
36 *1119:A1 *137:42 7.6644e-05
37 *98:30 *137:10 0
38 *108:21 *137:10 1.32185e-05
39 *115:28 *137:10 9.91033e-05
40 *116:10 *137:42 0.00012401
41 *116:18 *1094:B1 1.74352e-05
42 *116:18 *137:42 0.000170654
43 *124:23 *1116:A2 5.52302e-05
44 *124:63 *1094:B1 4.77002e-05
45 *129:18 *137:42 0.000116481
46 *130:10 *1116:A2 7.83659e-05
47 *130:10 *137:10 0.000120332
*RES
1 *965:X *137:10 20.1393 
2 *137:10 *1116:A2 17.2286 
3 *137:10 *137:27 5.44643 
4 *137:27 *966:A1 10.0321 
5 *137:27 *137:42 15.7679 
6 *137:42 *1119:A2 9.3 
7 *137:42 *1094:B1 27.3179 
*END

*D_NET *138 0.00140073
*CONN
*I *967:D1 I *D sky130_fd_sc_hd__o2111a_2
*I *966:Y O *D sky130_fd_sc_hd__o21ai_1
*CAP
1 *967:D1 0.000254248
2 *966:Y 0.000254248
3 *967:D1 *966:B1 5.38717e-06
4 *967:C1 *967:D1 5.33433e-05
5 *130:18 *967:D1 0.000705319
6 *137:27 *967:D1 3.25192e-05
7 *137:42 *967:D1 9.56618e-05
*RES
1 *966:Y *967:D1 26.1357 
*END

*D_NET *139 0.0072728
*CONN
*I *1107:B1 I *D sky130_fd_sc_hd__a211o_1
*I *1110:B I *D sky130_fd_sc_hd__or4_1
*I *1109:A1 I *D sky130_fd_sc_hd__o31ai_1
*I *1104:A I *D sky130_fd_sc_hd__nor2_1
*I *1100:B I *D sky130_fd_sc_hd__or3_1
*I *1101:A1 I *D sky130_fd_sc_hd__o21ai_1
*I *968:A2 I *D sky130_fd_sc_hd__o21ai_1
*I *967:X O *D sky130_fd_sc_hd__o2111a_2
*CAP
1 *1107:B1 8.20397e-05
2 *1110:B 0.000135566
3 *1109:A1 0
4 *1104:A 0.000403114
5 *1100:B 4.70928e-05
6 *1101:A1 1.05927e-05
7 *968:A2 0
8 *967:X 0.00014865
9 *139:79 0.000327452
10 *139:55 0.000548505
11 *139:47 0.000363732
12 *139:36 0.000234921
13 *139:23 0.00042375
14 *139:10 0.000482473
15 *1100:B *1188:CLK 2.59355e-05
16 *1104:A *1104:B 0.000310612
17 *1104:A *1108:A2 2.38501e-05
18 *1104:A *219:45 5.80706e-06
19 *1104:A *219:60 6.76021e-05
20 *1107:B1 *1107:A2 5.39464e-05
21 *1107:B1 *1110:D 5.50052e-05
22 *1107:B1 *219:77 5.50052e-05
23 *1110:B *219:77 3.97677e-05
24 *139:10 *219:22 0.00014966
25 *139:23 *936:B_N 0.000111999
26 *139:23 *219:22 0.000616547
27 *139:23 *219:28 8.07951e-05
28 *139:23 *355:84 3.5626e-05
29 *139:36 *219:28 0.000137939
30 *139:36 *219:45 0.000103981
31 *139:36 *355:84 0.000243635
32 *139:47 *219:45 0.000165107
33 *139:47 *224:10 7.83659e-05
34 *139:47 *355:84 0.000151333
35 *139:55 *1109:A2 3.33174e-05
36 *139:55 *1111:A1 7.43578e-06
37 *139:79 *1107:A2 7.74135e-05
38 *139:79 *224:10 2.49484e-05
39 *139:79 *224:25 3.79594e-05
40 *1101:B1 *1101:A1 6.91631e-06
41 *1109:B1 *139:55 1.6853e-05
42 *1110:A *1107:B1 2.28916e-05
43 *1110:A *1110:B 9.84729e-05
44 *1110:A *139:79 0.000178304
45 *1113:A *139:23 6.69141e-05
46 *98:8 *1101:A1 2.56909e-05
47 *99:134 *1104:A 6.73111e-05
48 *102:30 *1107:B1 0
49 *102:30 *139:47 4.57956e-05
50 *102:30 *139:79 1.50851e-05
51 *126:265 *139:55 4.85723e-05
52 *127:16 *1104:A 1.63602e-05
53 *129:48 *139:10 0.00014966
54 *129:59 *139:10 1.00887e-05
55 *129:59 *139:23 0.000462494
56 *130:18 *139:10 0.000139913
*RES
1 *967:X *139:10 17.1036 
2 *139:10 *968:A2 13.8 
3 *139:10 *139:23 10.9107 
4 *139:23 *1101:A1 14.0991 
5 *139:23 *139:36 3.16071 
6 *139:36 *1100:B 14.3357 
7 *139:36 *139:47 3.46429 
8 *139:47 *139:55 7.125 
9 *139:55 *1104:A 25.1036 
10 *139:55 *1109:A1 9.3 
11 *139:47 *139:79 3.08929 
12 *139:79 *1110:B 15.5679 
13 *139:79 *1107:B1 16.0321 
*END

*D_NET *140 0.000750775
*CONN
*I *973:A1 I *D sky130_fd_sc_hd__a22o_1
*I *974:A1 I *D sky130_fd_sc_hd__o221a_2
*I *969:Y O *D sky130_fd_sc_hd__inv_2
*CAP
1 *973:A1 0.000109947
2 *974:A1 2.10932e-05
3 *969:Y 0.000111948
4 *140:10 0.000242988
5 *973:A1 *973:A2 9.61553e-05
6 *973:A1 *974:B1 1.3701e-05
7 *973:A1 *145:10 5.71472e-05
8 *974:A1 *973:A2 5.52238e-05
9 *140:10 *1273:A 0
10 *140:10 *255:35 4.25716e-05
*RES
1 *969:Y *140:10 20.2464 
2 *140:10 *974:A1 9.83571 
3 *140:10 *973:A1 11.9071 
*END

*D_NET *141 0.00307978
*CONN
*I *973:B2 I *D sky130_fd_sc_hd__a22o_1
*I *972:A2 I *D sky130_fd_sc_hd__o211a_1
*I *970:Y O *D sky130_fd_sc_hd__inv_2
*CAP
1 *973:B2 0.000352343
2 *972:A2 0.000665138
3 *970:Y 0
4 *141:4 0.00101748
5 *972:A2 *972:A1 0.000178707
6 *972:A2 *972:B1 1.02301e-05
7 *972:A2 *1043:S 0.000179057
8 *972:A2 *1156:CLK 0.000143295
9 *972:A2 *324:18 0.000107555
10 *972:A2 *325:97 4.6829e-05
11 *973:B2 *1046:A 0.000199826
12 *973:B2 *254:10 0.00010096
13 *973:B2 *254:14 0
14 *1156:D *973:B2 7.83587e-05
*RES
1 *970:Y *141:4 9.3 
2 *141:4 *972:A2 30.1571 
3 *141:4 *973:B2 25.7464 
*END

*D_NET *142 0.000969368
*CONN
*I *972:C1 I *D sky130_fd_sc_hd__o211a_1
*I *971:Y O *D sky130_fd_sc_hd__inv_2
*CAP
1 *972:C1 0.000237192
2 *971:Y 0.000237192
3 *972:C1 *971:A 7.27183e-05
4 *972:C1 *972:B1 5.50052e-05
5 *972:C1 *1043:S 1.58163e-05
6 *972:C1 *1273:A 0.000332958
7 *972:C1 *325:97 1.84865e-05
*RES
1 *971:Y *972:C1 33.0464 
*END

*D_NET *143 0.000349295
*CONN
*I *974:B1 I *D sky130_fd_sc_hd__o221a_2
*I *972:X O *D sky130_fd_sc_hd__o211a_1
*CAP
1 *974:B1 0.000150154
2 *972:X 0.000150154
3 *974:B1 *973:A2 1.24368e-05
4 *974:B1 *974:B2 2.28499e-05
5 *974:B1 *1273:A 0
6 *974:B1 *145:10 0
7 *973:A1 *974:B1 1.3701e-05
*RES
1 *972:X *974:B1 30.3188 
*END

*D_NET *144 0.000556582
*CONN
*I *974:B2 I *D sky130_fd_sc_hd__o221a_2
*I *973:X O *D sky130_fd_sc_hd__a22o_1
*CAP
1 *974:B2 0.000153096
2 *973:X 0.000153096
3 *974:B2 *973:A2 0.000227539
4 *974:B1 *974:B2 2.28499e-05
*RES
1 *973:X *974:B2 21.6179 
*END

*D_NET *145 0.00609199
*CONN
*I *975:S I *D sky130_fd_sc_hd__mux2_1
*I *977:S I *D sky130_fd_sc_hd__mux2_1
*I *979:S I *D sky130_fd_sc_hd__mux2_1
*I *1045:S I *D sky130_fd_sc_hd__mux2_1
*I *1043:S I *D sky130_fd_sc_hd__mux2_1
*I *974:X O *D sky130_fd_sc_hd__o221a_2
*CAP
1 *975:S 0.000159633
2 *977:S 0
3 *979:S 0.000326805
4 *1045:S 0
5 *1043:S 0.000515086
6 *974:X 0.000226288
7 *145:55 0.000553136
8 *145:40 0.00089103
9 *145:12 0.000515086
10 *145:10 0.000397009
11 *975:S *1054:A1 5.49544e-05
12 *975:S *300:6 9.99853e-05
13 *975:S *324:120 9.66928e-05
14 *979:S *979:A0 0.000227532
15 *1043:S *972:B1 3.15815e-05
16 *1043:S *1043:A0 2.04681e-05
17 *1043:S *1155:RESET_B 3.98542e-05
18 *1043:S *1236:A 5.33005e-05
19 *145:10 *1156:CLK 8.7392e-05
20 *145:10 *1156:RESET_B 0.000221287
21 *145:10 *254:14 0
22 *145:40 *1156:CLK 0.000102367
23 *145:40 *1156:RESET_B 5.90911e-05
24 *145:40 *256:38 0.000166896
25 *145:40 *256:40 0.000375791
26 *145:40 *325:97 0.000388919
27 *145:55 *976:A 4.15914e-05
28 *145:55 *256:36 0
29 *145:55 *256:38 0
30 *145:55 *324:106 0
31 *145:55 *324:120 3.34295e-05
32 *972:A2 *1043:S 0.000179057
33 *972:C1 *1043:S 1.58163e-05
34 *973:A1 *145:10 5.71472e-05
35 *974:B1 *145:10 0
36 *1131:D *145:55 0.000154762
*RES
1 *974:X *145:10 18.4071 
2 *145:10 *145:12 4.5 
3 *145:12 *1043:S 26.3893 
4 *145:12 *1045:S 9.3 
5 *145:10 *145:40 12.2143 
6 *145:40 *979:S 15.175 
7 *145:40 *145:55 16.1607 
8 *145:55 *977:S 9.3 
9 *145:55 *975:S 12.7107 
*END

*D_NET *146 0.000504331
*CONN
*I *976:A I *D sky130_fd_sc_hd__clkbuf_1
*I *975:X O *D sky130_fd_sc_hd__mux2_1
*CAP
1 *976:A 0.000217415
2 *975:X 0.000217415
3 *976:A *324:106 2.79092e-05
4 *145:55 *976:A 4.15914e-05
*RES
1 *975:X *976:A 31.5464 
*END

*D_NET *147 0.000189121
*CONN
*I *978:A I *D sky130_fd_sc_hd__clkbuf_1
*I *977:X O *D sky130_fd_sc_hd__mux2_1
*CAP
1 *978:A 9.45603e-05
2 *977:X 9.45603e-05
3 *978:A *1224:A 0
*RES
1 *977:X *978:A 20.2786 
*END

*D_NET *148 0.00138881
*CONN
*I *980:A I *D sky130_fd_sc_hd__clkbuf_1
*I *979:X O *D sky130_fd_sc_hd__mux2_1
*CAP
1 *980:A 0.000670063
2 *979:X 0.000670063
3 *980:A *1059:A 1.00332e-05
4 *980:A *1164:CLK 0
5 *980:A *242:10 2.82744e-05
6 *980:A *242:86 1.03757e-05
*RES
1 *979:X *980:A 36.0821 
*END

*D_NET *149 0.00109775
*CONN
*I *985:A1 I *D sky130_fd_sc_hd__a22o_1
*I *986:A1 I *D sky130_fd_sc_hd__o221a_2
*I *981:Y O *D sky130_fd_sc_hd__inv_2
*CAP
1 *985:A1 0
2 *986:A1 0.000264653
3 *981:Y 0.000147467
4 *149:6 0.000412121
5 *986:A1 *985:A2 5.49489e-05
6 *986:A1 *986:A2 3.36527e-05
7 *986:A1 *986:B1 1.28809e-05
8 *986:A1 *986:B2 6.12076e-05
9 *986:A1 *154:21 2.51343e-06
10 *149:6 *985:B2 5.33005e-05
11 *986:C1 *986:A1 5.50052e-05
*RES
1 *981:Y *149:6 11.4786 
2 *149:6 *986:A1 13.9607 
3 *149:6 *985:A1 9.3 
*END

*D_NET *150 0.00127209
*CONN
*I *985:B1 I *D sky130_fd_sc_hd__a22o_1
*I *984:A1 I *D sky130_fd_sc_hd__o211a_1
*I *982:Y O *D sky130_fd_sc_hd__inv_2
*CAP
1 *985:B1 0.00031541
2 *984:A1 0.000151353
3 *982:Y 0
4 *150:4 0.000466763
5 *984:A1 *982:A 1.02301e-05
6 *984:A1 *984:A2 5.66971e-05
7 *984:A1 *986:B1 2.97578e-05
8 *985:B1 *985:B2 0.00015244
9 *985:B1 *986:B1 5.66971e-05
10 *985:B1 *281:29 3.27461e-05
*RES
1 *982:Y *150:4 9.3 
2 *150:4 *984:A1 12.2107 
3 *150:4 *985:B1 24.0857 
*END

*D_NET *151 0.000354503
*CONN
*I *984:C1 I *D sky130_fd_sc_hd__o211a_1
*I *983:Y O *D sky130_fd_sc_hd__inv_2
*CAP
1 *984:C1 0.000163083
2 *983:Y 0.000163083
3 *984:C1 *984:A2 3.49456e-06
4 *984:C1 *1134:RESET_B 2.48421e-05
*RES
1 *983:Y *984:C1 30.7429 
*END

*D_NET *152 0.000585788
*CONN
*I *986:B1 I *D sky130_fd_sc_hd__o221a_2
*I *984:X O *D sky130_fd_sc_hd__o211a_1
*CAP
1 *986:B1 0.000207371
2 *984:X 0.000207371
3 *986:B1 *986:B2 1.28809e-05
4 *986:B1 *1136:CLK 4.96701e-05
5 *984:A1 *986:B1 2.97578e-05
6 *985:B1 *986:B1 5.66971e-05
7 *986:A1 *986:B1 1.28809e-05
8 *986:C1 *986:B1 9.15842e-06
*RES
1 *984:X *986:B1 31.033 
*END

*D_NET *153 0.00036223
*CONN
*I *986:B2 I *D sky130_fd_sc_hd__o221a_2
*I *985:X O *D sky130_fd_sc_hd__a22o_1
*CAP
1 *986:B2 5.80466e-05
2 *985:X 5.80466e-05
3 *986:B2 *986:A2 0.000115351
4 *986:A1 *986:B2 6.12076e-05
5 *986:B1 *986:B2 1.28809e-05
6 *986:C1 *986:B2 5.66971e-05
*RES
1 *985:X *986:B2 20.7964 
*END

*D_NET *154 0.00546545
*CONN
*I *989:S I *D sky130_fd_sc_hd__mux2_1
*I *1003:S I *D sky130_fd_sc_hd__mux2_1
*I *1005:S I *D sky130_fd_sc_hd__mux2_1
*I *1007:S I *D sky130_fd_sc_hd__mux2_1
*I *987:S I *D sky130_fd_sc_hd__mux2_1
*I *986:X O *D sky130_fd_sc_hd__o221a_2
*CAP
1 *989:S 0
2 *1003:S 4.12722e-05
3 *1005:S 0
4 *1007:S 0.000332797
5 *987:S 0.000263285
6 *986:X 0
7 *154:33 0.000573432
8 *154:27 0.000506881
9 *154:21 0.000485177
10 *154:4 0.000523489
11 *987:S *984:B1 0.000172173
12 *987:S *986:A2 3.49456e-06
13 *987:S *987:A1 0.000131668
14 *1003:S *1078:A1 3.99614e-06
15 *1003:S *302:6 2.44318e-05
16 *1007:S *1005:A1 0.000319187
17 *1007:S *1007:A0 0.000268842
18 *1007:S *1083:A 5.74309e-05
19 *1007:S *1141:CLK 0.000199782
20 *154:21 *984:A2 0.000300674
21 *154:21 *1136:CLK 0.000490361
22 *154:21 *1140:CLK 1.02504e-05
23 *154:27 *984:A2 7.83659e-05
24 *154:27 *1140:CLK 0.000147474
25 *154:33 *1005:A1 5.80706e-06
26 *154:33 *1078:A1 0.000142856
27 *154:33 *302:6 4.88637e-05
28 *154:33 *324:120 0
29 *986:A1 *154:21 2.51343e-06
30 *1140:D *154:27 4.57445e-05
31 *1140:D *154:33 9.90431e-05
32 *126:228 *1007:S 9.84534e-05
33 *126:228 *154:33 8.77022e-05
*RES
1 *986:X *154:4 9.3 
2 *154:4 *987:S 14.3893 
3 *154:4 *154:21 11.5357 
4 *154:21 *154:27 9.30357 
5 *154:27 *154:33 9.83929 
6 *154:33 *1007:S 23.4964 
7 *154:33 *1005:S 13.8 
8 *154:27 *1003:S 10.2643 
9 *154:21 *989:S 13.8 
*END

*D_NET *155 0.000229819
*CONN
*I *988:A I *D sky130_fd_sc_hd__clkbuf_1
*I *987:X O *D sky130_fd_sc_hd__mux2_1
*CAP
1 *988:A 0.000114909
2 *987:X 0.000114909
*RES
1 *987:X *988:A 20.6893 
*END

*D_NET *156 0.00100184
*CONN
*I *990:A I *D sky130_fd_sc_hd__clkbuf_1
*I *989:X O *D sky130_fd_sc_hd__mux2_1
*CAP
1 *990:A 0.00028644
2 *989:X 0.00028644
3 *990:A *1134:RESET_B 0.000126416
4 *990:A *1173:RESET_B 0.000197378
5 *990:A *247:62 0.000105163
*RES
1 *989:X *990:A 33.4393 
*END

*D_NET *157 0.00169912
*CONN
*I *996:A1 I *D sky130_fd_sc_hd__a22o_1
*I *997:A1 I *D sky130_fd_sc_hd__o221a_2
*I *992:Y O *D sky130_fd_sc_hd__inv_2
*CAP
1 *996:A1 0.000285632
2 *997:A1 0.000281681
3 *992:Y 0
4 *157:6 0.000567312
5 *996:A1 *992:A 5.80706e-06
6 *996:A1 *996:B1 5.52302e-05
7 *996:A1 *996:B2 0.000186669
8 *996:A1 *1239:A 0
9 *997:A1 *992:A 4.44164e-05
10 *997:A1 *994:A 0
11 *997:A1 *995:C1 2.48421e-05
12 *997:A1 *996:B1 0.000226266
13 *997:A1 *997:B1 2.12647e-05
*RES
1 *992:Y *157:6 13.8 
2 *157:6 *997:A1 19.55 
3 *157:6 *996:A1 19.05 
*END

*D_NET *158 0.00219972
*CONN
*I *996:B1 I *D sky130_fd_sc_hd__a22o_1
*I *995:A1 I *D sky130_fd_sc_hd__o211a_1
*I *993:Y O *D sky130_fd_sc_hd__inv_2
*CAP
1 *996:B1 0.000285532
2 *995:A1 6.48882e-05
3 *993:Y 0
4 *158:4 0.00035042
5 *995:A1 *995:A2 3.50746e-05
6 *995:A1 *995:C1 0.000118599
7 *995:A1 *996:B2 9.84673e-05
8 *995:A1 *997:B1 9.75679e-05
9 *995:A1 *162:6 1.65914e-05
10 *996:B1 *992:A 1.69115e-05
11 *996:B1 *995:C1 7.25873e-06
12 *996:B1 *997:A2 7.42921e-05
13 *996:B1 *997:B1 0.000345145
14 *996:B1 *1139:CLK 0.000213882
15 *996:B1 *1170:RESET_B 0.000193596
16 *996:A1 *996:B1 5.52302e-05
17 *997:A1 *996:B1 0.000226266
*RES
1 *993:Y *158:4 9.3 
2 *158:4 *995:A1 11.9071 
3 *158:4 *996:B1 27.5321 
*END

*D_NET *159 0.000931347
*CONN
*I *995:C1 I *D sky130_fd_sc_hd__o211a_1
*I *994:Y O *D sky130_fd_sc_hd__inv_2
*CAP
1 *995:C1 0.0002682
2 *994:Y 0.0002682
3 *995:C1 *995:B1 9.54974e-05
4 *995:C1 *996:B2 3.64584e-05
5 *995:C1 *998:A0 0.000100165
6 *995:C1 *303:47 1.21258e-05
7 *995:A1 *995:C1 0.000118599
8 *996:B1 *995:C1 7.25873e-06
9 *997:A1 *995:C1 2.48421e-05
*RES
1 *994:Y *995:C1 33.3143 
*END

*D_NET *160 0.00140285
*CONN
*I *997:B1 I *D sky130_fd_sc_hd__o221a_2
*I *995:X O *D sky130_fd_sc_hd__o211a_1
*CAP
1 *997:B1 0.000225519
2 *995:X 0.000225519
3 *997:B1 *997:B2 3.96619e-05
4 *997:B1 *162:6 0.000442713
5 *995:A1 *997:B1 9.75679e-05
6 *996:B1 *997:B1 0.000345145
7 *997:A1 *997:B1 2.12647e-05
8 *93:232 *997:B1 5.46383e-06
*RES
1 *995:X *997:B1 25.7473 
*END

*D_NET *161 0.000677939
*CONN
*I *997:B2 I *D sky130_fd_sc_hd__o221a_2
*I *996:X O *D sky130_fd_sc_hd__a22o_1
*CAP
1 *997:B2 0.000207236
2 *996:X 0.000207236
3 *997:B2 *997:A2 0.000134983
4 *997:B2 *1204:A 7.83659e-05
5 *997:B2 *253:20 0
6 *997:B1 *997:B2 3.96619e-05
7 *93:232 *997:B2 1.04561e-05
*RES
1 *996:X *997:B2 32.4571 
*END

*D_NET *162 0.00567784
*CONN
*I *1000:S I *D sky130_fd_sc_hd__mux2_1
*I *1020:S I *D sky130_fd_sc_hd__mux2_1
*I *1024:S I *D sky130_fd_sc_hd__mux2_1
*I *1022:S I *D sky130_fd_sc_hd__mux2_1
*I *998:S I *D sky130_fd_sc_hd__mux2_1
*I *997:X O *D sky130_fd_sc_hd__o221a_2
*CAP
1 *1000:S 0
2 *1020:S 0.000207914
3 *1024:S 4.00826e-05
4 *1022:S 0.000160259
5 *998:S 9.74008e-05
6 *997:X 0.000490676
7 *162:27 0.000372998
8 *162:25 0.000537601
9 *162:23 0.000355199
10 *162:6 0.000786245
11 *998:S *995:B1 4.47241e-05
12 *998:S *998:A1 1.62025e-05
13 *1022:S *1200:A 0.000227971
14 *1022:S *303:30 6.23268e-05
15 *1024:S *1148:RESET_B 9.90367e-05
16 *162:6 *995:B1 4.37451e-05
17 *162:6 *996:B2 0.000129504
18 *162:6 *303:47 5.33005e-05
19 *162:23 *256:377 8.07792e-06
20 *162:23 *303:47 0.0001608
21 *162:25 *256:367 5.26184e-05
22 *162:25 *256:377 7.5206e-05
23 *162:25 *303:30 0.000123014
24 *162:27 *256:367 6.8646e-06
25 *162:27 *303:30 0.000143043
26 *995:A1 *162:6 1.65914e-05
27 *997:B1 *162:6 0.000442713
28 *1076:S *1020:S 9.71197e-05
29 *1076:S *162:27 0.000199539
30 *1088:A1 *1020:S 0.000531286
31 *126:69 *1022:S 9.1314e-05
32 *126:69 *162:27 4.46186e-06
*RES
1 *997:X *162:6 16.4071 
2 *162:6 *998:S 11.2286 
3 *162:6 *162:23 8.875 
4 *162:23 *162:25 4.67857 
5 *162:25 *162:27 5.28571 
6 *162:27 *1022:S 18.2286 
7 *162:27 *1024:S 14.7464 
8 *162:25 *1020:S 19.2821 
9 *162:23 *1000:S 13.8 
*END

*D_NET *163 0.000786825
*CONN
*I *999:A I *D sky130_fd_sc_hd__clkbuf_1
*I *998:X O *D sky130_fd_sc_hd__mux2_1
*CAP
1 *999:A 0.000340814
2 *998:X 0.000340814
3 *1137:D *999:A 5.54817e-06
4 *30:47 *999:A 9.96487e-05
*RES
1 *998:X *999:A 32.2429 
*END

*D_NET *164 0.000929433
*CONN
*I *1001:A I *D sky130_fd_sc_hd__clkbuf_1
*I *1000:X O *D sky130_fd_sc_hd__mux2_1
*CAP
1 *1001:A 0.000400747
2 *1000:X 0.000400747
3 *30:47 *1001:A 0.000127939
*RES
1 *1000:X *1001:A 33.0643 
*END

*D_NET *165 0.000410223
*CONN
*I *1004:A I *D sky130_fd_sc_hd__clkbuf_1
*I *1003:X O *D sky130_fd_sc_hd__mux2_1
*CAP
1 *1004:A 0.00011229
2 *1003:X 0.00011229
3 *1004:A *1078:A1 0.000185643
*RES
1 *1003:X *1004:A 21.1 
*END

*D_NET *166 0.00108177
*CONN
*I *1006:A I *D sky130_fd_sc_hd__clkbuf_1
*I *1005:X O *D sky130_fd_sc_hd__mux2_1
*CAP
1 *1006:A 0.000369388
2 *1005:X 0.000369388
3 *1006:A *1080:A1 0.000200841
4 *1006:A *294:14 3.39217e-05
5 *1006:A *324:120 3.91782e-05
6 *1141:D *1006:A 6.90533e-05
*RES
1 *1005:X *1006:A 36.1357 
*END

*D_NET *167 0.00149762
*CONN
*I *1008:A I *D sky130_fd_sc_hd__clkbuf_1
*I *1007:X O *D sky130_fd_sc_hd__mux2_1
*CAP
1 *1008:A 0.000199466
2 *1007:X 0.000199466
3 *1008:A *932:A1 0.000335348
4 *1008:A *326:130 2.59355e-05
5 *1008:A *355:17 9.25014e-06
6 *1008:A *355:19 0.000199825
7 *931:A1 *1008:A 0.000528329
*RES
1 *1007:X *1008:A 34.9393 
*END

*D_NET *168 0.00181503
*CONN
*I *1014:A1 I *D sky130_fd_sc_hd__o221a_2
*I *1013:A1 I *D sky130_fd_sc_hd__a22o_1
*I *1009:Y O *D sky130_fd_sc_hd__inv_2
*CAP
1 *1014:A1 0.000291965
2 *1013:A1 9.38306e-05
3 *1009:Y 1.78363e-05
4 *168:6 0.000403631
5 *1013:A1 *1009:A 1.04232e-05
6 *1013:A1 *1013:B1 0.000189976
7 *1013:A1 *1013:B2 5.49489e-05
8 *1013:A1 *1014:B2 1.20417e-05
9 *1013:A1 *320:30 5.49544e-05
10 *1014:A1 *1012:C1 1.24368e-05
11 *1014:A1 *1014:A2 7.80167e-05
12 *1014:A1 *1017:A1 0.000121842
13 *1014:A1 *256:189 0
14 *168:6 *1009:A 2.9986e-05
15 *168:6 *1013:B1 9.83442e-05
16 *168:6 *320:30 4.17433e-05
17 *93:66 *1013:A1 9.87617e-05
18 *93:81 *1014:A1 0.000204294
*RES
1 *1009:Y *168:6 10.2464 
2 *168:6 *1013:A1 12.3357 
3 *168:6 *1014:A1 32.2821 
*END

*D_NET *169 0.00207156
*CONN
*I *1012:A1 I *D sky130_fd_sc_hd__o211a_1
*I *1013:B1 I *D sky130_fd_sc_hd__a22o_1
*I *1010:Y O *D sky130_fd_sc_hd__inv_2
*CAP
1 *1012:A1 8.65237e-05
2 *1013:B1 0.000516931
3 *1010:Y 7.06526e-05
4 *169:8 0.000674107
5 *1012:A1 *1014:B1 0.000139913
6 *1013:B1 *1009:A 2.41049e-05
7 *1013:B1 *1014:B2 9.77414e-05
8 *1013:B1 *1065:A 1.3701e-05
9 *1013:B1 *256:254 7.50601e-05
10 *169:8 *256:254 6.30388e-05
11 *1013:A1 *1013:B1 0.000189976
12 *93:66 *1013:B1 0
13 *93:100 *1012:A1 2.14658e-05
14 *168:6 *1013:B1 9.83442e-05
*RES
1 *1010:Y *169:8 15.4429 
2 *169:8 *1013:B1 22.7821 
3 *169:8 *1012:A1 15.5679 
*END

*D_NET *170 0.000686784
*CONN
*I *1012:C1 I *D sky130_fd_sc_hd__o211a_1
*I *1011:Y O *D sky130_fd_sc_hd__inv_2
*CAP
1 *1012:C1 0.000250897
2 *1011:Y 0.000250897
3 *1012:C1 *1014:B1 9.59035e-05
4 *1012:C1 *1017:A1 4.15914e-05
5 *1012:C1 *173:16 0
6 *1014:A1 *1012:C1 1.24368e-05
7 *93:81 *1012:C1 3.50594e-05
*RES
1 *1011:Y *1012:C1 32.0821 
*END

*D_NET *171 0.000960402
*CONN
*I *1014:B1 I *D sky130_fd_sc_hd__o221a_2
*I *1012:X O *D sky130_fd_sc_hd__o211a_1
*CAP
1 *1014:B1 0.000150039
2 *1012:X 0.000150039
3 *1012:A1 *1014:B1 0.000139913
4 *1012:C1 *1014:B1 9.59035e-05
5 *93:81 *1014:B1 7.22672e-05
6 *93:100 *1014:B1 0.00035224
*RES
1 *1012:X *1014:B1 23.3054 
*END

*D_NET *172 0.000892117
*CONN
*I *1014:B2 I *D sky130_fd_sc_hd__o221a_2
*I *1013:X O *D sky130_fd_sc_hd__a22o_1
*CAP
1 *1014:B2 0.000250354
2 *1013:X 0.000250354
3 *1014:B2 *1014:A2 0.000123295
4 *1014:B2 *1017:A1 0.000121254
5 *1014:B2 *249:27 2.8078e-05
6 *1013:A1 *1014:B2 1.20417e-05
7 *1013:B1 *1014:B2 9.77414e-05
8 *93:66 *1014:B2 8.9987e-06
*RES
1 *1013:X *1014:B2 31.8321 
*END

*D_NET *173 0.00535391
*CONN
*I *1041:S I *D sky130_fd_sc_hd__mux2_1
*I *1039:S I *D sky130_fd_sc_hd__mux2_1
*I *1037:S I *D sky130_fd_sc_hd__mux2_1
*I *1017:S I *D sky130_fd_sc_hd__mux2_1
*I *1015:S I *D sky130_fd_sc_hd__mux2_1
*I *1014:X O *D sky130_fd_sc_hd__o221a_2
*CAP
1 *1041:S 0.000572912
2 *1039:S 0
3 *1037:S 0.000141895
4 *1017:S 0
5 *1015:S 0
6 *1014:X 0.00027451
7 *173:38 0.000231129
8 *173:34 0.00103466
9 *173:23 0.000538827
10 *173:16 0.000440825
11 *1037:S *1197:A 5.23822e-05
12 *1041:S *1041:A1 1.99993e-05
13 *1041:S *1167:CLK 0.0003497
14 *1041:S *256:266 0.000306076
15 *1041:S *256:286 0.000197516
16 *173:16 *1011:A 0
17 *173:16 *1012:B1 8.8355e-05
18 *173:16 *1017:A1 0
19 *173:16 *1143:RESET_B 1.5942e-05
20 *173:16 *256:189 0.000154762
21 *173:23 *1015:A0 1.21258e-05
22 *173:23 *1018:A 0.000141131
23 *173:23 *1153:CLK 0.000182731
24 *173:34 *1153:CLK 7.8195e-05
25 *173:34 *1153:RESET_B 4.73514e-05
26 *173:34 *256:254 2.49484e-05
27 *173:34 *256:266 0.000171584
28 *173:38 *1022:A1 0.000185408
29 *173:38 *325:54 5.66971e-05
30 *1012:C1 *173:16 0
31 *93:81 *173:16 3.42509e-05
*RES
1 *1014:X *173:16 24.2821 
2 *173:16 *1015:S 9.3 
3 *173:16 *173:23 3.82143 
4 *173:23 *1017:S 9.3 
5 *173:23 *173:34 12 
6 *173:34 *173:38 6.67857 
7 *173:38 *1037:S 21.4964 
8 *173:38 *1039:S 9.3 
9 *173:34 *1041:S 24.8536 
*END

*D_NET *174 0.000207352
*CONN
*I *1016:A I *D sky130_fd_sc_hd__clkbuf_1
*I *1015:X O *D sky130_fd_sc_hd__mux2_1
*CAP
1 *1016:A 7.55263e-05
2 *1015:X 7.55263e-05
3 *1016:A *1018:A 5.62995e-05
4 *1016:A *1153:CLK 0
*RES
1 *1015:X *1016:A 20.2786 
*END

*D_NET *175 0.000998225
*CONN
*I *1018:A I *D sky130_fd_sc_hd__clkbuf_1
*I *1017:X O *D sky130_fd_sc_hd__mux2_1
*CAP
1 *1018:A 0.00038262
2 *1017:X 0.00038262
3 *1018:A *1015:A0 1.82657e-05
4 *1016:A *1018:A 5.62995e-05
5 *1143:D *1018:A 1.72894e-05
6 *173:23 *1018:A 0.000141131
*RES
1 *1017:X *1018:A 25.2071 
*END

*D_NET *176 0.000615315
*CONN
*I *1021:A I *D sky130_fd_sc_hd__clkbuf_1
*I *1020:X O *D sky130_fd_sc_hd__mux2_1
*CAP
1 *1021:A 0.000165508
2 *1020:X 0.000165508
3 *1021:A *245:10 0.000150625
4 *1021:A *245:63 0
5 *1021:A *256:367 3.5707e-05
6 *1021:A *256:377 6.03708e-05
7 *1146:D *1021:A 3.75959e-05
*RES
1 *1020:X *1021:A 31.975 
*END

*D_NET *177 0.000945372
*CONN
*I *1023:A I *D sky130_fd_sc_hd__clkbuf_1
*I *1022:X O *D sky130_fd_sc_hd__mux2_1
*CAP
1 *1023:A 0.000435885
2 *1022:X 0.000435885
3 *1023:A *1025:A 7.36019e-05
*RES
1 *1022:X *1023:A 34.4036 
*END

*D_NET *178 0.000954371
*CONN
*I *1025:A I *D sky130_fd_sc_hd__clkbuf_1
*I *1024:X O *D sky130_fd_sc_hd__mux2_1
*CAP
1 *1025:A 0.000364705
2 *1024:X 0.000364705
3 *1025:A *1024:A1 0.00015136
4 *1023:A *1025:A 7.36019e-05
*RES
1 *1024:X *1025:A 34.6 
*END

*D_NET *179 0.00139549
*CONN
*I *1030:A1 I *D sky130_fd_sc_hd__a22o_1
*I *1031:A1 I *D sky130_fd_sc_hd__o221a_2
*I *1026:Y O *D sky130_fd_sc_hd__inv_2
*CAP
1 *1030:A1 0.000297794
2 *1031:A1 4.54188e-05
3 *1026:Y 0.000152539
4 *179:6 0.000495751
5 *1030:A1 *1030:A2 0.000131959
6 *1030:A1 *1030:B1 3.57366e-05
7 *1030:A1 *1030:B2 1.74352e-05
8 *1030:A1 *184:8 2.59355e-05
9 *1031:A1 *1030:A2 9.90431e-05
10 *1031:A1 *1031:B2 2.28499e-05
11 *179:6 *1031:B1 1.28809e-05
12 *93:66 *1031:A1 3.99614e-06
13 *93:66 *179:6 5.41494e-05
*RES
1 *1026:Y *179:6 11.8893 
2 *179:6 *1031:A1 11.0857 
3 *179:6 *1030:A1 13.9786 
*END

*D_NET *180 0.00166707
*CONN
*I *1030:B2 I *D sky130_fd_sc_hd__a22o_1
*I *1029:A2 I *D sky130_fd_sc_hd__o211a_1
*I *1027:Y O *D sky130_fd_sc_hd__inv_2
*CAP
1 *1030:B2 0.000196583
2 *1029:A2 0.000242834
3 *1027:Y 0
4 *180:4 0.000439417
5 *1029:A2 *1029:A1 6.10501e-05
6 *1029:A2 *1029:B1 0.000332402
7 *1029:A2 *252:23 4.45768e-06
8 *1030:B2 *1027:A 6.94775e-05
9 *1030:B2 *1030:A2 7.50713e-05
10 *1030:B2 *1030:B1 1.39841e-05
11 *1030:B2 *1158:CLK 3.18676e-05
12 *1030:B2 *184:20 0.00014738
13 *1030:A1 *1030:B2 1.74352e-05
14 *1149:D *1030:B2 3.51106e-05
*RES
1 *1027:Y *180:4 9.3 
2 *180:4 *1029:A2 13.3357 
3 *180:4 *1030:B2 23.2821 
*END

*D_NET *181 0.00093244
*CONN
*I *1029:C1 I *D sky130_fd_sc_hd__o211a_1
*I *1028:Y O *D sky130_fd_sc_hd__inv_2
*CAP
1 *1029:C1 0.000122291
2 *1028:Y 0.000122291
3 *1029:C1 *1027:A 5.52302e-05
4 *1029:C1 *1029:B1 0.000465347
5 *1029:C1 *1033:A 0.00014285
6 *1258:A *1029:C1 2.44318e-05
*RES
1 *1028:Y *1029:C1 23.2607 
*END

*D_NET *182 0.00067562
*CONN
*I *1031:B1 I *D sky130_fd_sc_hd__o221a_2
*I *1029:X O *D sky130_fd_sc_hd__o211a_1
*CAP
1 *1031:B1 0.000166787
2 *1029:X 0.000166787
3 *1031:B1 *1029:A1 5.52302e-05
4 *1031:B1 *184:20 0
5 *1031:B1 *251:6 9.90367e-05
6 *1031:B1 *251:14 0.000107408
7 *1031:B1 *252:23 6.74911e-05
8 *179:6 *1031:B1 1.28809e-05
*RES
1 *1029:X *1031:B1 31.033 
*END

*D_NET *183 0.000604905
*CONN
*I *1031:B2 I *D sky130_fd_sc_hd__o221a_2
*I *1030:X O *D sky130_fd_sc_hd__a22o_1
*CAP
1 *1031:B2 0.000123835
2 *1030:X 0.000123835
3 *1031:B2 *1030:A2 0.00022459
4 *1031:B2 *184:20 9.60939e-05
5 *1031:A1 *1031:B2 2.28499e-05
6 *93:66 *1031:B2 1.3701e-05
*RES
1 *1030:X *1031:B2 21.6179 
*END

*D_NET *184 0.00438448
*CONN
*I *1052:S I *D sky130_fd_sc_hd__mux2_1
*I *1034:S I *D sky130_fd_sc_hd__mux2_1
*I *1032:S I *D sky130_fd_sc_hd__mux2_1
*I *1048:S I *D sky130_fd_sc_hd__mux2_1
*I *1050:S I *D sky130_fd_sc_hd__mux2_1
*I *1031:X O *D sky130_fd_sc_hd__o221a_2
*CAP
1 *1052:S 0.000175066
2 *1034:S 0.000108117
3 *1032:S 0
4 *1048:S 0
5 *1050:S 0.000175255
6 *1031:X 2.04425e-05
7 *184:65 0.000568362
8 *184:32 0.000584607
9 *184:20 0.000895285
10 *184:8 0.000791555
11 *1050:S *1050:A1 2.85234e-05
12 *1050:S *253:56 1.00887e-05
13 *184:8 *1030:A2 5.33005e-05
14 *184:20 *1027:A 7.6644e-05
15 *184:20 *1030:A2 7.48301e-06
16 *184:20 *1032:A0 5.17614e-05
17 *184:20 *1033:A 0.000186669
18 *184:20 *1158:CLK 0.000134175
19 *184:20 *252:23 1.87955e-05
20 *184:32 *1032:A0 3.34295e-05
21 *184:32 *1032:A1 1.02504e-05
22 *184:32 *1158:RESET_B 0
23 *184:32 *345:12 5.16779e-05
24 *184:65 *1027:A 0.00013358
25 *184:65 *1034:A1 0
26 *184:65 *251:14 0
27 *1030:A1 *184:8 2.59355e-05
28 *1030:B2 *184:20 0.00014738
29 *1031:B1 *184:20 0
30 *1031:B2 *184:20 9.60939e-05
*RES
1 *1031:X *184:8 14.3357 
2 *184:8 *184:20 14.0357 
3 *184:20 *184:32 15.5179 
4 *184:32 *1050:S 21.3357 
5 *184:32 *1048:S 9.3 
6 *184:20 *1032:S 9.3 
7 *184:8 *184:65 5.33929 
8 *184:65 *1034:S 15.5679 
9 *184:65 *1052:S 16.6571 
*END

*D_NET *185 0.00105815
*CONN
*I *1033:A I *D sky130_fd_sc_hd__clkbuf_1
*I *1032:X O *D sky130_fd_sc_hd__mux2_1
*CAP
1 *1033:A 0.000280915
2 *1032:X 0.000280915
3 *1033:A *1032:A1 0
4 *1029:C1 *1033:A 0.00014285
5 *1149:D *1033:A 6.77561e-05
6 *1258:A *1033:A 9.90431e-05
7 *184:20 *1033:A 0.000186669
*RES
1 *1032:X *1033:A 32.6714 
*END

*D_NET *186 0.000985615
*CONN
*I *1035:A I *D sky130_fd_sc_hd__clkbuf_1
*I *1034:X O *D sky130_fd_sc_hd__mux2_1
*CAP
1 *1035:A 0.000351874
2 *1034:X 0.000351874
3 *1035:A *1150:CLK 7.57312e-05
4 *1035:A *240:50 2.85321e-05
5 *1035:A *240:67 7.74135e-05
6 *1035:A *320:22 7.74135e-05
7 *1150:D *1035:A 2.27766e-05
*RES
1 *1034:X *1035:A 33.0821 
*END

*D_NET *187 0.000174807
*CONN
*I *1038:A I *D sky130_fd_sc_hd__clkbuf_1
*I *1037:X O *D sky130_fd_sc_hd__mux2_1
*CAP
1 *1038:A 5.9901e-05
2 *1037:X 5.9901e-05
3 *1038:A *1197:A 5.50052e-05
*RES
1 *1037:X *1038:A 19.8679 
*END

*D_NET *188 0.000902926
*CONN
*I *1040:A I *D sky130_fd_sc_hd__clkbuf_1
*I *1039:X O *D sky130_fd_sc_hd__mux2_1
*CAP
1 *1040:A 0.000273354
2 *1039:X 0.000273354
3 *1040:A *1015:A0 0.000141734
4 *1040:A *1022:A1 5.33005e-05
5 *1040:A *1235:A 0.000161183
*RES
1 *1039:X *1040:A 24.5107 
*END

*D_NET *189 0.000384161
*CONN
*I *1042:A I *D sky130_fd_sc_hd__clkbuf_1
*I *1041:X O *D sky130_fd_sc_hd__mux2_1
*CAP
1 *1042:A 0.00019208
2 *1041:X 0.00019208
*RES
1 *1041:X *1042:A 21.5107 
*END

*D_NET *190 0.000398484
*CONN
*I *1044:A I *D sky130_fd_sc_hd__clkbuf_1
*I *1043:X O *D sky130_fd_sc_hd__mux2_1
*CAP
1 *1044:A 9.9804e-05
2 *1043:X 9.9804e-05
3 *1044:A *253:72 0.000198876
*RES
1 *1043:X *1044:A 21.1 
*END

*D_NET *191 0.000879786
*CONN
*I *1046:A I *D sky130_fd_sc_hd__clkbuf_1
*I *1045:X O *D sky130_fd_sc_hd__mux2_1
*CAP
1 *1046:A 0.000219512
2 *1045:X 0.000219512
3 *1046:A *1045:A1 3.75959e-05
4 *1046:A *254:10 2.44318e-05
5 *1046:A *254:14 0.000100549
6 *973:B2 *1046:A 0.000199826
7 *1156:D *1046:A 7.83587e-05
*RES
1 *1045:X *1046:A 33.2786 
*END

*D_NET *192 0.000783782
*CONN
*I *1049:A I *D sky130_fd_sc_hd__clkbuf_1
*I *1048:X O *D sky130_fd_sc_hd__mux2_1
*CAP
1 *1049:A 0.000288927
2 *1048:X 0.000288927
3 *1049:A *920:C 0
4 *1049:A *1229:A 0
5 *1049:A *250:14 7.77751e-05
6 *1049:A *345:12 0
7 *1158:D *1049:A 0.000128154
*RES
1 *1048:X *1049:A 33.3321 
*END

*D_NET *193 0.000151562
*CONN
*I *1051:A I *D sky130_fd_sc_hd__clkbuf_1
*I *1050:X O *D sky130_fd_sc_hd__mux2_1
*CAP
1 *1051:A 7.57811e-05
2 *1050:X 7.57811e-05
*RES
1 *1050:X *1051:A 19.8679 
*END

*D_NET *194 0.00108314
*CONN
*I *1053:A I *D sky130_fd_sc_hd__clkbuf_1
*I *1052:X O *D sky130_fd_sc_hd__mux2_1
*CAP
1 *1053:A 0.000253923
2 *1052:X 0.000253923
3 *1053:A *1019:B1 0.000182605
4 *1053:A *1246:A 0.000310384
5 *1053:A *326:36 3.49456e-06
6 *1053:A *326:53 7.88091e-05
*RES
1 *1052:X *1053:A 24.9214 
*END

*D_NET *195 0.00128086
*CONN
*I *1055:A I *D sky130_fd_sc_hd__clkbuf_1
*I *1054:X O *D sky130_fd_sc_hd__mux2_1
*CAP
1 *1055:A 0.000236623
2 *1054:X 0.000236623
3 *1055:A *1005:A1 0.000501327
4 *1055:A *1056:A0 5.66971e-05
5 *1055:A *324:120 0.000249594
*RES
1 *1054:X *1055:A 34.6357 
*END

*D_NET *196 0.00026387
*CONN
*I *1057:A I *D sky130_fd_sc_hd__clkbuf_1
*I *1056:X O *D sky130_fd_sc_hd__mux2_1
*CAP
1 *1057:A 6.7966e-05
2 *1056:X 6.7966e-05
3 *1057:A *243:92 0.000127939
*RES
1 *1056:X *1057:A 29.2429 
*END

*D_NET *197 0.00146297
*CONN
*I *1059:A I *D sky130_fd_sc_hd__clkbuf_1
*I *1058:X O *D sky130_fd_sc_hd__mux2_1
*CAP
1 *1059:A 0.000567693
2 *1058:X 0.000567693
3 *1059:A *1163:RESET_B 0.000196964
4 *1059:A *1164:RESET_B 0.00012059
5 *1059:A *243:31 0
6 *980:A *1059:A 1.00332e-05
7 *1163:D *1059:A 0
*RES
1 *1058:X *1059:A 36.35 
*END

*D_NET *198 0.000542204
*CONN
*I *1061:A I *D sky130_fd_sc_hd__clkbuf_1
*I *1060:X O *D sky130_fd_sc_hd__mux2_1
*CAP
1 *1061:A 0.000208236
2 *1060:X 0.000208236
3 *1061:A *1060:A0 0
4 *1061:A *1164:RESET_B 0
5 *1061:A *239:59 0
6 *1061:A *243:31 0
7 *1061:A *367:23 0.000125731
*RES
1 *1060:X *1061:A 31.6714 
*END

*D_NET *199 0.000150834
*CONN
*I *1063:A I *D sky130_fd_sc_hd__clkbuf_1
*I *1062:X O *D sky130_fd_sc_hd__mux2_1
*CAP
1 *1063:A 6.91987e-05
2 *1062:X 6.91987e-05
3 *126:22 *1063:A 1.24368e-05
*RES
1 *1062:X *1063:A 19.8679 
*END

*D_NET *200 0.000573485
*CONN
*I *1065:A I *D sky130_fd_sc_hd__clkbuf_1
*I *1064:X O *D sky130_fd_sc_hd__mux2_1
*CAP
1 *1065:A 0.000239859
2 *1064:X 0.000239859
3 *1065:A *1064:A1 0
4 *1065:A *1166:CLK 3.99614e-06
5 *1013:B1 *1065:A 1.3701e-05
6 *1166:D *1065:A 7.60689e-05
*RES
1 *1064:X *1065:A 31.4393 
*END

*D_NET *201 0.000412433
*CONN
*I *1067:A I *D sky130_fd_sc_hd__clkbuf_1
*I *1066:X O *D sky130_fd_sc_hd__mux2_1
*CAP
1 *1067:A 0.000166316
2 *1066:X 0.000166316
3 *1067:A *1020:A1 2.48421e-05
4 *1067:A *278:8 5.4959e-05
*RES
1 *1066:X *1067:A 31.0286 
*END

*D_NET *202 0.000630449
*CONN
*I *1250:A I *D sky130_fd_sc_hd__dlygate4sd3_1
*I *1068:X O *D sky130_fd_sc_hd__mux2_1
*CAP
1 *1250:A 6.42531e-05
2 *1068:X 6.42531e-05
3 *1250:A *1068:A0 0.00018444
4 *1250:A *325:54 0.000317503
*RES
1 *1068:X *1250:A 22.0286 
*END

*D_NET *203 0.000824205
*CONN
*I *1071:A I *D sky130_fd_sc_hd__clkbuf_1
*I *1070:X O *D sky130_fd_sc_hd__mux2_1
*CAP
1 *1071:A 0.000313716
2 *1070:X 0.000313716
3 *1071:A *1169:CLK 0
4 *1071:A *303:24 0.000143375
5 *1071:A *319:10 0
6 *1169:D *1071:A 5.33978e-05
*RES
1 *1070:X *1071:A 33.0286 
*END

*D_NET *204 0.000904802
*CONN
*I *1073:A I *D sky130_fd_sc_hd__clkbuf_1
*I *1072:X O *D sky130_fd_sc_hd__mux2_1
*CAP
1 *1073:A 0.000335825
2 *1072:X 0.000335825
3 *1073:A *1139:CLK 2.28343e-05
4 *1073:A *245:63 0.000155317
5 *1170:D *1073:A 5.49995e-05
*RES
1 *1072:X *1073:A 33.0821 
*END

*D_NET *205 0.00195541
*CONN
*I *1075:A I *D sky130_fd_sc_hd__clkbuf_1
*I *1074:X O *D sky130_fd_sc_hd__mux2_1
*CAP
1 *1075:A 0.000638351
2 *1074:X 0.000638351
3 *1075:A *937:B_N 9.25014e-06
4 *1075:A *1020:A1 0.000160619
5 *1075:A *1074:A0 0.000413134
6 *1075:A *1223:A 5.50052e-05
7 *950:A *1075:A 0
8 *1171:D *1075:A 4.0698e-05
9 *102:54 *1075:A 0
*RES
1 *1074:X *1075:A 39.8679 
*END

*D_NET *206 0.000723412
*CONN
*I *1208:A I *D sky130_fd_sc_hd__dlygate4sd3_1
*I *1076:X O *D sky130_fd_sc_hd__mux2_1
*CAP
1 *1208:A 0.000222983
2 *1076:X 0.000222983
3 *1208:A *303:30 4.57445e-05
4 *1088:A1 *1208:A 0.000231701
*RES
1 *1076:X *1208:A 31.4214 
*END

*D_NET *207 0.000267226
*CONN
*I *1079:A I *D sky130_fd_sc_hd__clkbuf_1
*I *1078:X O *D sky130_fd_sc_hd__mux2_1
*CAP
1 *1079:A 0.000133613
2 *1078:X 0.000133613
*RES
1 *1078:X *1079:A 20.8143 
*END

*D_NET *208 0.00046167
*CONN
*I *1081:A I *D sky130_fd_sc_hd__clkbuf_1
*I *1080:X O *D sky130_fd_sc_hd__mux2_1
*CAP
1 *1081:A 0.000151654
2 *1080:X 0.000151654
3 *1081:A *1080:A1 5.83768e-05
4 *1081:A *1175:RESET_B 9.99853e-05
*RES
1 *1080:X *1081:A 30.1893 
*END

*D_NET *209 0.00165253
*CONN
*I *1083:A I *D sky130_fd_sc_hd__clkbuf_1
*I *1082:X O *D sky130_fd_sc_hd__mux2_1
*CAP
1 *1083:A 0.000612216
2 *1082:X 0.000612216
3 *1083:A *1005:A1 6.23427e-05
4 *1083:A *1175:CLK 0.000136727
5 *1007:S *1083:A 5.74309e-05
6 *1175:D *1083:A 4.42731e-05
7 *126:202 *1083:A 3.4689e-05
8 *126:228 *1083:A 9.26318e-05
*RES
1 *1082:X *1083:A 37.2964 
*END

*D_NET *210 0.000449654
*CONN
*I *1085:A I *D sky130_fd_sc_hd__clkbuf_1
*I *1084:X O *D sky130_fd_sc_hd__mux2_1
*CAP
1 *1085:A 0.000140927
2 *1084:X 0.000140927
3 *1085:A *1227:A 3.77553e-05
4 *1085:A *256:628 0
5 *1086:S *1085:A 7.55152e-05
6 *30:113 *1085:A 5.45307e-05
*RES
1 *1084:X *1085:A 30.4929 
*END

*D_NET *211 0.000786814
*CONN
*I *1087:A I *D sky130_fd_sc_hd__clkbuf_1
*I *1086:X O *D sky130_fd_sc_hd__mux2_1
*CAP
1 *1087:A 0.000273207
2 *1086:X 0.000273207
3 *1087:A *989:A0 5.14623e-05
4 *1087:A *1177:CLK 5.52238e-05
5 *1087:A *1245:A 7.34896e-05
6 *1087:A *256:654 0
7 *1087:A *270:18 3.18676e-05
8 *99:22 *1087:A 2.83569e-05
*RES
1 *1086:X *1087:A 32.2607 
*END

*D_NET *212 0.000345985
*CONN
*I *1089:A I *D sky130_fd_sc_hd__clkbuf_1
*I *1088:X O *D sky130_fd_sc_hd__mux2_1
*CAP
1 *1089:A 0.000122512
2 *1088:X 0.000122512
3 *1178:D *1089:A 0.00010096
*RES
1 *1088:X *1089:A 21.1 
*END

*D_NET *213 0.00371592
*CONN
*I *1091:A2 I *D sky130_fd_sc_hd__o21ai_1
*I *1119:A3 I *D sky130_fd_sc_hd__o31a_1
*I *1090:Y O *D sky130_fd_sc_hd__nand2_1
*CAP
1 *1091:A2 0.000464787
2 *1119:A3 6.31223e-05
3 *1090:Y 0.000520756
4 *213:20 0.00104867
5 *1091:A2 *239:55 0.000162832
6 *1119:A3 *1119:B1 9.80173e-05
7 *1119:A3 *239:55 5.59013e-05
8 *213:20 *961:A2 9.60875e-05
9 *213:20 *1202:A 0
10 *952:B *213:20 7.48301e-06
11 *952:D *213:20 5.49643e-05
12 *958:A_N *1091:A2 0
13 *958:C *213:20 8.07951e-05
14 *967:B1 *1091:A2 0
15 *967:C1 *1091:A2 0.000207475
16 *1094:B1 *1119:A3 0.0001399
17 *1094:B1 *213:20 0.000228558
18 *1195:A *213:20 0
19 *105:10 *213:20 9.0145e-05
20 *115:22 *1091:A2 0.00015078
21 *116:10 *1091:A2 0
22 *116:18 *1119:A3 2.44318e-05
23 *120:22 *213:20 1.81148e-05
24 *120:33 *213:20 0.000122339
25 *125:10 *213:20 9.25014e-06
26 *127:28 *1091:A2 6.46482e-05
27 *129:18 *1091:A2 6.8646e-06
28 *137:42 *1091:A2 0
*RES
1 *1090:Y *213:20 31.1929 
2 *213:20 *1119:A3 15.8893 
3 *213:20 *1091:A2 24.55 
*END

*D_NET *214 0.00327194
*CONN
*I *1092:A1 I *D sky130_fd_sc_hd__mux2_1
*I *1091:Y O *D sky130_fd_sc_hd__o21ai_1
*CAP
1 *1092:A1 0.00090138
2 *1091:Y 0.00090138
3 *1092:A1 *1104:B 3.24964e-05
4 *1092:A1 *239:18 1.12578e-05
5 *1092:A1 *361:8 7.85994e-05
6 *1092:A1 *361:12 0.000111023
7 *933:A *1092:A1 0.000395427
8 *938:C1 *1092:A1 7.74135e-05
9 *1106:B *1092:A1 0.000150625
10 *1188:D *1092:A1 5.56943e-05
11 *93:232 *1092:A1 5.09999e-05
12 *98:18 *1092:A1 7.15264e-05
13 *98:30 *1092:A1 5.92441e-05
14 *127:16 *1092:A1 2.53878e-05
15 *127:20 *1092:A1 0.000201432
16 *127:22 *1092:A1 5.90443e-06
17 *127:28 *1092:A1 4.01501e-05
18 *135:6 *1092:A1 9.47378e-05
19 *135:21 *1092:A1 7.25873e-06
*RES
1 *1091:Y *1092:A1 49.8321 
*END

*D_NET *215 0.000458693
*CONN
*I *1093:A I *D sky130_fd_sc_hd__clkbuf_1
*I *1092:X O *D sky130_fd_sc_hd__mux2_1
*CAP
1 *1093:A 0.00016871
2 *1092:X 0.00016871
3 *1093:A *1180:CLK 2.48421e-05
4 *1180:D *1093:A 3.9733e-05
5 *93:232 *1093:A 5.66971e-05
*RES
1 *1092:X *1093:A 31.1357 
*END

*D_NET *216 0.00195868
*CONN
*I *1095:A1 I *D sky130_fd_sc_hd__mux2_1
*I *1094:Y O *D sky130_fd_sc_hd__a21oi_1
*CAP
1 *1095:A1 0.000463092
2 *1094:Y 0.000463092
3 *1095:A1 *961:A2 9.85599e-06
4 *1095:A1 *1095:A0 3.08664e-05
5 *1095:A1 *1096:A 0.000618151
6 *1095:A1 *266:16 0.000223668
7 *1094:B1 *1095:A1 1.32293e-05
8 *124:63 *1095:A1 0.000136727
*RES
1 *1094:Y *1095:A1 29.8321 
*END

*D_NET *217 0.00174828
*CONN
*I *1096:A I *D sky130_fd_sc_hd__clkbuf_1
*I *1095:X O *D sky130_fd_sc_hd__mux2_1
*CAP
1 *1096:A 0.000546223
2 *1095:X 0.000546223
3 *1096:A *1181:CLK 9.15842e-06
4 *1096:A *1181:RESET_B 2.85234e-05
5 *1095:A1 *1096:A 0.000618151
*RES
1 *1095:X *1096:A 35.9571 
*END

*D_NET *218 0.000232335
*CONN
*I *1098:A I *D sky130_fd_sc_hd__clkbuf_1
*I *1097:X O *D sky130_fd_sc_hd__mux2_1
*CAP
1 *1098:A 0.000116167
2 *1097:X 0.000116167
*RES
1 *1097:X *1098:A 20.6893 
*END

*D_NET *219 0.00700848
*CONN
*I *1101:A2 I *D sky130_fd_sc_hd__o21ai_1
*I *1110:C I *D sky130_fd_sc_hd__or4_1
*I *1107:C1 I *D sky130_fd_sc_hd__a211o_1
*I *1104:B I *D sky130_fd_sc_hd__nor2_1
*I *1109:A2 I *D sky130_fd_sc_hd__o31ai_1
*I *1100:C I *D sky130_fd_sc_hd__or3_1
*I *1099:Y O *D sky130_fd_sc_hd__nand2_2
*CAP
1 *1101:A2 0
2 *1110:C 2.09314e-05
3 *1107:C1 1.827e-05
4 *1104:B 0.000125588
5 *1109:A2 1.11162e-05
6 *1100:C 5.81537e-05
7 *1099:Y 0.000670351
8 *219:77 0.000176473
9 *219:60 0.000350772
10 *219:45 0.000349903
11 *219:28 0.000499286
12 *219:22 0.000860609
13 *1100:C *1188:CLK 5.03772e-05
14 *1104:B *1108:A2 0.000182804
15 *1104:B *1108:B1 7.20187e-05
16 *1107:C1 *1107:A1 3.49456e-06
17 *1110:C *1110:D 3.11088e-05
18 *219:22 *936:B_N 7.77946e-05
19 *219:22 *1113:B 6.18956e-05
20 *219:22 *1186:CLK 0.000100618
21 *219:22 *1187:CLK 2.37944e-05
22 *219:45 *1106:A 0
23 *219:45 *224:10 0.00012401
24 *219:60 *224:10 9.25014e-06
25 *219:60 *224:25 0.000137935
26 *219:77 *1108:B1 7.25873e-06
27 *219:77 *1110:D 3.76824e-05
28 *219:77 *224:25 4.58194e-05
29 *968:B1 *219:22 0.00015091
30 *1092:A1 *1104:B 3.24964e-05
31 *1100:A *219:28 1.08359e-05
32 *1100:A *219:45 1.31516e-05
33 *1101:B1 *219:22 3.23206e-05
34 *1101:B1 *219:28 8.17274e-05
35 *1102:A *1100:C 5.33005e-05
36 *1104:A *1104:B 0.000310612
37 *1104:A *219:45 5.80706e-06
38 *1104:A *219:60 6.76021e-05
39 *1107:B1 *219:77 5.50052e-05
40 *1110:A *1110:C 8.69355e-05
41 *1110:A *219:77 5.50052e-05
42 *1110:B *219:77 3.97677e-05
43 *1113:A *219:28 0.000200406
44 *1122:A2 *219:22 3.98559e-05
45 *30:22 *219:22 0.000141444
46 *98:10 *219:28 1.24368e-05
47 *99:134 *219:45 0
48 *126:265 *1109:A2 1.66856e-05
49 *127:20 *1104:B 5.51716e-05
50 *127:20 *219:45 0
51 *127:61 *1100:C 5.33005e-05
52 *130:18 *219:22 9.90367e-05
53 *139:10 *219:22 0.00014966
54 *139:23 *219:22 0.000616547
55 *139:23 *219:28 8.07951e-05
56 *139:36 *219:28 0.000137939
57 *139:36 *219:45 0.000103981
58 *139:47 *219:45 0.000165107
59 *139:55 *1109:A2 3.33174e-05
*RES
1 *1099:Y *219:22 33.9071 
2 *219:22 *219:28 8.30357 
3 *219:28 *1100:C 15.175 
4 *219:28 *219:45 5.94643 
5 *219:45 *1109:A2 14.1304 
6 *219:45 *219:60 6.875 
7 *219:60 *1104:B 22.8536 
8 *219:60 *219:77 3.01786 
9 *219:77 *1107:C1 9.72857 
10 *219:77 *1110:C 10.2464 
11 *219:22 *1101:A2 9.3 
*END

*D_NET *220 0.000272227
*CONN
*I *1102:B I *D sky130_fd_sc_hd__and3_1
*I *1100:X O *D sky130_fd_sc_hd__or3_1
*CAP
1 *1102:B 9.72258e-05
2 *1100:X 9.72258e-05
3 *1102:B *1188:CLK 7.77751e-05
*RES
1 *1100:X *1102:B 19.9571 
*END

*D_NET *221 0.000273781
*CONN
*I *1102:C I *D sky130_fd_sc_hd__and3_1
*I *1101:Y O *D sky130_fd_sc_hd__o21ai_1
*CAP
1 *1102:C 0.000106091
2 *1101:Y 0.000106091
3 *1102:C *1188:CLK 2.23227e-05
4 *1102:C *355:84 3.92757e-05
*RES
1 *1101:Y *1102:C 29.2429 
*END

*D_NET *222 0.000437302
*CONN
*I *1103:A I *D sky130_fd_sc_hd__clkbuf_1
*I *1102:X O *D sky130_fd_sc_hd__and3_1
*CAP
1 *1103:A 0.000167141
2 *1102:X 0.000167141
3 *1103:A *1188:CLK 3.18676e-05
4 *1103:A *247:12 3.18676e-05
5 *1103:A *355:84 0
6 *1183:D *1103:A 3.92854e-05
*RES
1 *1102:X *1103:A 30.4929 
*END

*D_NET *223 0.000462407
*CONN
*I *1108:A2 I *D sky130_fd_sc_hd__o211a_1
*I *1104:Y O *D sky130_fd_sc_hd__nor2_1
*CAP
1 *1108:A2 8.3003e-05
2 *1104:Y 8.3003e-05
3 *1108:A2 *1108:B1 4.13389e-05
4 *1104:A *1108:A2 2.38501e-05
5 *1104:B *1108:A2 0.000182804
6 *127:16 *1108:A2 4.84073e-05
*RES
1 *1104:Y *1108:A2 21.2071 
*END

*D_NET *224 0.00196682
*CONN
*I *1110:D I *D sky130_fd_sc_hd__or4_1
*I *1107:A1 I *D sky130_fd_sc_hd__a211o_1
*I *1109:A3 I *D sky130_fd_sc_hd__o31ai_1
*I *1105:Y O *D sky130_fd_sc_hd__nand2_1
*CAP
1 *1110:D 8.77629e-05
2 *1107:A1 1.14108e-05
3 *1109:A3 0
4 *1105:Y 0.000206122
5 *224:25 0.000279898
6 *224:10 0.000386847
7 *224:25 *1107:A2 0.00014852
8 *224:25 *1108:B1 3.50746e-05
9 *1107:B1 *1110:D 5.50052e-05
10 *1107:C1 *1107:A1 3.49456e-06
11 *1110:C *1110:D 3.11088e-05
12 *102:30 *224:10 0.000225609
13 *139:47 *224:10 7.83659e-05
14 *139:79 *224:10 2.49484e-05
15 *139:79 *224:25 3.79594e-05
16 *219:45 *224:10 0.00012401
17 *219:60 *224:10 9.25014e-06
18 *219:60 *224:25 0.000137935
19 *219:77 *1110:D 3.76824e-05
20 *219:77 *224:25 4.58194e-05
*RES
1 *1105:Y *224:10 17.6214 
2 *224:10 *1109:A3 13.8 
3 *224:10 *224:25 8.73214 
4 *224:25 *1107:A1 9.72857 
5 *224:25 *1110:D 11.0679 
*END

*D_NET *225 0.00143766
*CONN
*I *1107:A2 I *D sky130_fd_sc_hd__a211o_1
*I *1106:X O *D sky130_fd_sc_hd__or2_1
*CAP
1 *1107:A2 0.000361482
2 *1106:X 0.000361482
3 *1107:B1 *1107:A2 5.39464e-05
4 *126:265 *1107:A2 0.000434819
5 *139:79 *1107:A2 7.74135e-05
6 *224:25 *1107:A2 0.00014852
*RES
1 *1106:X *1107:A2 33.7786 
*END

*D_NET *226 0.000505674
*CONN
*I *1108:B1 I *D sky130_fd_sc_hd__o211a_1
*I *1107:X O *D sky130_fd_sc_hd__a211o_1
*CAP
1 *1108:B1 0.000137277
2 *1107:X 0.000137277
3 *1104:B *1108:B1 7.20187e-05
4 *1108:A2 *1108:B1 4.13389e-05
5 *1184:D *1108:B1 5.66971e-05
6 *127:16 *1108:B1 1.87331e-05
7 *219:77 *1108:B1 7.25873e-06
8 *224:25 *1108:B1 3.50746e-05
*RES
1 *1107:X *1108:B1 22.0464 
*END

*D_NET *227 0.00117295
*CONN
*I *1111:A1 I *D sky130_fd_sc_hd__a21oi_1
*I *1109:Y O *D sky130_fd_sc_hd__o31ai_1
*CAP
1 *1111:A1 0.000326286
2 *1109:Y 0.000326286
3 *1109:B1 *1111:A1 5.33005e-05
4 *1185:D *1111:A1 1.6806e-05
5 *102:16 *1111:A1 0.000172517
6 *126:265 *1111:A1 0.00027032
7 *139:55 *1111:A1 7.43578e-06
*RES
1 *1109:Y *1111:A1 35.3321 
*END

*D_NET *228 0.000153741
*CONN
*I *1111:A2 I *D sky130_fd_sc_hd__a21oi_1
*I *1110:X O *D sky130_fd_sc_hd__or4_1
*CAP
1 *1111:A2 5.85843e-05
2 *1110:X 5.85843e-05
3 *1110:A *1111:A2 5.46383e-06
4 *1185:D *1111:A2 3.11088e-05
*RES
1 *1110:X *1111:A2 19.8679 
*END

*D_NET *229 0.000462139
*CONN
*I *1113:B I *D sky130_fd_sc_hd__nand2_1
*I *1112:Y O *D sky130_fd_sc_hd__o21ai_1
*CAP
1 *1113:B 0.000170373
2 *1112:Y 0.000170373
3 *1113:B *1203:A 6.92966e-06
4 *964:A2 *1113:B 5.54817e-06
5 *1112:A1 *1113:B 2.85321e-05
6 *134:12 *1113:B 1.84865e-05
7 *219:22 *1113:B 6.18956e-05
*RES
1 *1112:Y *1113:B 30.4214 
*END

*D_NET *230 0.000351194
*CONN
*I *1115:B I *D sky130_fd_sc_hd__nand2_1
*I *1114:Y O *D sky130_fd_sc_hd__o21ai_1
*CAP
1 *1115:B 0.000135535
2 *1114:Y 0.000135535
3 *1115:B *936:B_N 2.45006e-05
4 *1115:B *1114:B1 3.36464e-05
5 *1100:A *1115:B 2.19778e-05
6 *1113:A *1115:B 0
7 *127:28 *1115:B 0
*RES
1 *1114:Y *1115:B 30.0821 
*END

*D_NET *231 0.000246667
*CONN
*I *1117:B I *D sky130_fd_sc_hd__or2_1
*I *1116:X O *D sky130_fd_sc_hd__o31a_1
*CAP
1 *1117:B 0.000107631
2 *1116:X 0.000107631
3 *951:D1 *1117:B 3.14048e-05
*RES
1 *1116:X *1117:B 20.3679 
*END

*D_NET *232 0.00073379
*CONN
*I *1118:A I *D sky130_fd_sc_hd__clkbuf_1
*I *1117:X O *D sky130_fd_sc_hd__or2_1
*CAP
1 *1118:A 0.000261089
2 *1117:X 0.000261089
3 *950:A *1118:A 0.000103935
4 *1117:A *1118:A 4.01768e-05
5 *1189:D *1118:A 6.75007e-05
6 *93:213 *1118:A 0
*RES
1 *1117:X *1118:A 32.9214 
*END

*D_NET *233 0.000217133
*CONN
*I *1120:B I *D sky130_fd_sc_hd__or2_1
*I *1119:X O *D sky130_fd_sc_hd__o31a_1
*CAP
1 *1120:B 5.43905e-05
2 *1119:X 5.43905e-05
3 *1120:B *239:55 0
4 *98:38 *1120:B 0.000102545
5 *116:18 *1120:B 5.80706e-06
*RES
1 *1119:X *1120:B 28.9393 
*END

*D_NET *234 0.000446878
*CONN
*I *1121:A I *D sky130_fd_sc_hd__clkbuf_1
*I *1120:X O *D sky130_fd_sc_hd__or2_1
*CAP
1 *1121:A 8.53806e-05
2 *1120:X 8.53806e-05
3 *1121:A *1181:RESET_B 5.23735e-05
4 *1121:A *239:55 7.47942e-05
5 *1120:A *1121:A 4.87841e-05
6 *98:53 *1121:A 0.000100165
*RES
1 *1120:X *1121:A 30.4929 
*END

*D_NET *235 0.000740752
*CONN
*I *1123:B I *D sky130_fd_sc_hd__or2_1
*I *1122:Y O *D sky130_fd_sc_hd__a21oi_1
*CAP
1 *1123:B 0.000269061
2 *1122:Y 0.000269061
3 *1123:B *957:A 1.3701e-05
4 *1123:B *1124:A 3.46262e-06
5 *1123:B *373:12 0
6 *1095:S *1123:B 8.54803e-05
7 *1123:A *1123:B 9.99853e-05
*RES
1 *1122:Y *1123:B 32.0464 
*END

*D_NET *236 0.00220935
*CONN
*I *1124:A I *D sky130_fd_sc_hd__clkbuf_1
*I *1123:X O *D sky130_fd_sc_hd__or2_1
*CAP
1 *1124:A 0.000595042
2 *1123:X 0.000595042
3 *1124:A *246:10 0.000101859
4 *932:A2 *1124:A 0.000126837
5 *932:B1 *1124:A 5.33005e-05
6 *1123:A *1124:A 2.37144e-05
7 *1123:B *1124:A 3.46262e-06
8 *1191:D *1124:A 0.000137437
9 *1195:A *1124:A 0
10 *105:10 *1124:A 0.000572652
*RES
1 *1123:X *1124:A 40.3143 
*END

*D_NET *237 0.0015658
*CONN
*I *1127:B I *D sky130_fd_sc_hd__nor2_1
*I *1126:Y O *D sky130_fd_sc_hd__a21oi_1
*CAP
1 *1127:B 0.000216346
2 *1126:Y 0.000216346
3 *1127:B *1048:A0 6.14702e-06
4 *1127:B *1060:A1 0.000215246
5 *1127:B *1194:CLK 1.34741e-05
6 *1127:B *1229:A 0.000166381
7 *1127:B *326:36 0.00042879
8 *1127:A *1127:B 9.75679e-05
9 *1193:D *1127:B 0.000184503
10 *93:133 *1127:B 4.40513e-06
11 *94:17 *1127:B 1.65914e-05
*RES
1 *1126:Y *1127:B 34.9571 
*END

*D_NET *238 0.000579623
*CONN
*I *1129:B I *D sky130_fd_sc_hd__nor2_1
*I *1128:Y O *D sky130_fd_sc_hd__nor2_1
*CAP
1 *1129:B 0.000177456
2 *1128:Y 0.000177456
3 *1129:B *1194:RESET_B 0
4 *1129:B *326:18 0
5 *922:A *1129:B 0.000153697
6 *1128:B *1129:B 3.99044e-05
7 *28:6 *1129:B 3.11088e-05
*RES
1 *1128:Y *1129:B 30.6357 
*END

*D_NET *239 0.0183996
*CONN
*I *1202:A I *D sky130_fd_sc_hd__clkbuf_16
*I *1197:A I *D sky130_fd_sc_hd__clkbuf_16
*I *1198:A I *D sky130_fd_sc_hd__clkbuf_16
*I *1199:A I *D sky130_fd_sc_hd__clkbuf_16
*I *1196:A I *D sky130_fd_sc_hd__clkbuf_16
*I *1203:A I *D sky130_fd_sc_hd__clkbuf_16
*I *1201:A I *D sky130_fd_sc_hd__clkbuf_16
*I *1200:A I *D sky130_fd_sc_hd__clkbuf_16
*I *1195:X O *D sky130_fd_sc_hd__clkbuf_16
*CAP
1 *1202:A 0.000379708
2 *1197:A 0.00167873
3 *1198:A 0.000225059
4 *1199:A 0.000120498
5 *1196:A 0
6 *1203:A 0.000489686
7 *1201:A 0
8 *1200:A 0.000727717
9 *1195:X 0
10 *239:66 0.000595796
11 *239:59 0.000702572
12 *239:55 0.00254179
13 *239:51 0.000801321
14 *239:22 0.00100858
15 *239:18 0.00131125
16 *239:4 0.000551597
17 *1197:A *1037:A1 0.000141935
18 *1197:A *256:461 0
19 *1197:A *324:70 0.000101601
20 *1199:A *1060:A0 1.19309e-05
21 *1199:A *1060:A1 0
22 *1200:A *1022:A0 0.00022871
23 *1200:A *1022:A1 0.000125679
24 *1200:A *303:30 3.99088e-05
25 *1202:A *373:24 9.90367e-05
26 *1203:A *936:B_N 0.000209082
27 *239:18 *253:20 0
28 *239:22 *935:A2 2.36643e-05
29 *239:22 *935:B1 0.000139266
30 *239:22 *375:20 1.21258e-05
31 *239:55 *324:70 8.00984e-06
32 *239:55 *377:27 0.000221589
33 *239:59 *944:B1 0.000115637
34 *239:59 *1060:A0 0
35 *239:59 *1164:RESET_B 5.16759e-05
36 *239:59 *324:70 0.000893678
37 *239:59 *377:27 2.51379e-05
38 *935:A1 *1203:A 0.000181114
39 *935:A1 *239:22 9.83388e-05
40 *935:C1 *1200:A 1.32056e-05
41 *935:C1 *239:22 2.36643e-05
42 *938:C1 *239:18 7.74135e-05
43 *947:C1 *239:59 0
44 *958:B *239:18 5.52238e-05
45 *958:C *1202:A 0.000426338
46 *958:C *239:18 0.000109926
47 *958:C *239:51 4.18895e-05
48 *963:B *239:18 7.24369e-05
49 *1022:S *1200:A 0.000227971
50 *1037:S *1197:A 5.23822e-05
51 *1038:A *1197:A 5.50052e-05
52 *1060:S *1199:A 0
53 *1060:S *239:59 0
54 *1061:A *239:59 0
55 *1091:A2 *239:55 0.000162832
56 *1092:A1 *239:18 1.12578e-05
57 *1112:A1 *1203:A 9.1454e-05
58 *1113:A *1203:A 0.000139331
59 *1113:B *1203:A 6.92966e-06
60 *1119:A1 *239:55 3.69697e-05
61 *1119:A3 *239:55 5.59013e-05
62 *1120:A *239:55 0
63 *1120:B *239:55 0
64 *1121:A *239:55 7.47942e-05
65 *1152:D *1197:A 5.49995e-05
66 *1187:D *1203:A 0.000226274
67 *1195:A *1202:A 0.000222885
68 *98:30 *239:18 0.000557658
69 *98:38 *239:55 0
70 *105:10 *1202:A 5.33005e-05
71 *108:12 *239:22 0.000178425
72 *116:10 *239:18 0.000547925
73 *116:18 *239:55 0
74 *125:10 *1202:A 0
75 *127:28 *239:18 3.61589e-06
76 *129:10 *1202:A 0.000161947
77 *129:18 *1202:A 0.000397911
78 *129:18 *239:18 5.52302e-05
79 *129:18 *239:51 5.52238e-05
80 *129:18 *239:55 5.10822e-05
81 *134:12 *1203:A 0.000228876
82 *137:42 *239:55 6.8646e-06
83 *213:20 *1202:A 0
*RES
1 *1195:X *239:4 9.3 
2 *239:4 *239:18 23.3214 
3 *239:18 *239:22 5.48214 
4 *239:22 *1200:A 32.4071 
5 *239:22 *1201:A 9.3 
6 *239:18 *1203:A 19.6929 
7 *239:4 *239:51 0.535714 
8 *239:51 *239:55 14.4911 
9 *239:55 *239:59 17.2232 
10 *239:59 *1196:A 9.3 
11 *239:59 *239:66 3.82143 
12 *239:66 *1199:A 20.2464 
13 *239:66 *1198:A 13.1214 
14 *239:55 *1197:A 29.0203 
15 *239:51 *1202:A 29.1036 
*END

*D_NET *240 0.0135858
*CONN
*I *1168:CLK I *D sky130_fd_sc_hd__dfrtp_1
*I *1165:CLK I *D sky130_fd_sc_hd__dfrtp_1
*I *1159:CLK I *D sky130_fd_sc_hd__dfrtp_1
*I *1149:CLK I *D sky130_fd_sc_hd__dfrtp_1
*I *1160:CLK I *D sky130_fd_sc_hd__dfrtp_1
*I *1145:CLK I *D sky130_fd_sc_hd__dfrtp_1
*I *1144:CLK I *D sky130_fd_sc_hd__dfrtp_1
*I *1151:CLK I *D sky130_fd_sc_hd__dfrtp_1
*I *1150:CLK I *D sky130_fd_sc_hd__dfrtp_1
*I *1158:CLK I *D sky130_fd_sc_hd__dfrtp_1
*I *1166:CLK I *D sky130_fd_sc_hd__dfrtp_1
*I *1196:X O *D sky130_fd_sc_hd__clkbuf_16
*CAP
1 *1168:CLK 0.000504253
2 *1165:CLK 3.71831e-05
3 *1159:CLK 9.53293e-06
4 *1149:CLK 0
5 *1160:CLK 1.90348e-05
6 *1145:CLK 0
7 *1144:CLK 0.000500508
8 *1151:CLK 0.00049704
9 *1150:CLK 3.00046e-05
10 *1158:CLK 0.000343636
11 *1166:CLK 0.000535397
12 *1196:X 0.000193585
13 *240:125 0.000710079
14 *240:86 0.000552011
15 *240:73 0.00129265
16 *240:67 0.00117114
17 *240:50 0.000688064
18 *240:48 0.00031597
19 *240:31 0.000794306
20 *240:25 0.000588342
21 *240:21 0.000362687
22 *240:10 0.000728982
23 *1158:CLK *1030:B1 0.000131874
24 *1158:CLK *1032:A0 0.0001399
25 *1158:CLK *1158:RESET_B 0.000543968
26 *1159:CLK *1159:RESET_B 2.38501e-05
27 *1159:CLK *326:36 5.50052e-05
28 *1165:CLK *256:169 2.28598e-05
29 *1168:CLK *1168:RESET_B 0
30 *240:25 *256:175 0
31 *240:25 *256:510 0.000269359
32 *240:31 *1159:RESET_B 2.85321e-05
33 *240:31 *326:36 0.000268042
34 *240:48 *1030:B1 2.77173e-05
35 *240:50 *1030:B1 0.000165612
36 *240:50 *1034:A0 0.000211414
37 *240:50 *1150:RESET_B 9.24868e-05
38 *240:50 *346:6 4.63305e-05
39 *240:67 *320:22 0.000218522
40 *240:73 *1145:RESET_B 4.7268e-05
41 *240:73 *1246:A 9.41642e-05
42 *240:73 *256:179 2.22618e-05
43 *240:73 *256:189 8.50109e-06
44 *240:73 *341:6 5.33005e-05
45 *240:125 *256:171 0
46 *240:125 *256:175 0
47 *1030:B2 *1158:CLK 3.18676e-05
48 *1035:A *1150:CLK 7.57312e-05
49 *1035:A *240:50 2.85321e-05
50 *1035:A *240:67 7.74135e-05
51 *1065:A *1166:CLK 3.99614e-06
52 *1145:D *240:73 0.000100074
53 *1149:D *1158:CLK 0.000123138
54 *1149:D *240:48 2.59355e-05
55 *1150:D *1150:CLK 7.83179e-05
56 *1160:D *240:67 3.21277e-05
57 *1160:D *240:73 3.42509e-05
58 *1165:D *240:25 0
59 *1165:D *240:125 0
60 *1166:D *1166:CLK 5.76121e-05
61 *1168:D *1168:CLK 3.53199e-05
62 *1251:A *1144:CLK 0
63 *93:12 *1144:CLK 0
64 *93:100 *1165:CLK 9.71197e-05
65 *93:122 *1168:CLK 1.52978e-05
66 *93:122 *240:10 6.74046e-05
67 *93:122 *240:125 6.42242e-05
68 *93:213 *1168:CLK 8.47011e-05
69 *126:26 *1165:CLK 7.3237e-05
70 *126:32 *1168:CLK 0
71 *184:20 *1158:CLK 0.000134175
*RES
1 *1196:X *240:10 12.4429 
2 *240:10 *1166:CLK 15.9071 
3 *240:10 *240:21 4.5 
4 *240:21 *240:25 8.875 
5 *240:25 *240:31 11.7679 
6 *240:31 *1158:CLK 23.5857 
7 *240:31 *240:48 5.85714 
8 *240:48 *240:50 7.10714 
9 *240:50 *1150:CLK 10.6571 
10 *240:50 *240:67 17.2857 
11 *240:67 *240:73 10.125 
12 *240:73 *1151:CLK 27.2286 
13 *240:73 *240:86 1.03571 
14 *240:86 *1144:CLK 26.7643 
15 *240:86 *1145:CLK 9.3 
16 *240:67 *1160:CLK 9.72857 
17 *240:48 *1149:CLK 9.3 
18 *240:25 *1159:CLK 9.83571 
19 *240:21 *240:125 3.16071 
20 *240:125 *1165:CLK 15.1571 
21 *240:125 *1168:CLK 22.6571 
*END

*D_NET *241 0.00738805
*CONN
*I *1152:CLK I *D sky130_fd_sc_hd__dfrtp_1
*I *1167:CLK I *D sky130_fd_sc_hd__dfrtp_1
*I *1169:CLK I *D sky130_fd_sc_hd__dfrtp_1
*I *1154:CLK I *D sky130_fd_sc_hd__dfrtp_1
*I *1143:CLK I *D sky130_fd_sc_hd__dfrtp_1
*I *1153:CLK I *D sky130_fd_sc_hd__dfrtp_1
*I *1197:X O *D sky130_fd_sc_hd__clkbuf_16
*CAP
1 *1152:CLK 0
2 *1167:CLK 0.000657321
3 *1169:CLK 0.000139863
4 *1154:CLK 0.000190273
5 *1143:CLK 0.000398944
6 *1153:CLK 0.000340865
7 *1197:X 5.98766e-05
8 *241:62 0.000906002
9 *241:38 0.000537531
10 *241:12 0.000891291
11 *241:10 0.000413559
12 *241:8 0.000363238
13 *1143:CLK *1143:RESET_B 3.06123e-05
14 *1153:CLK *1011:A 0
15 *1153:CLK *1012:B1 1.99099e-05
16 *1153:CLK *1015:A0 0.000313198
17 *1153:CLK *319:10 8.57292e-05
18 *1154:CLK *303:24 0.000268682
19 *1167:CLK *1041:A0 3.67779e-05
20 *1167:CLK *1041:A1 0.000163094
21 *1167:CLK *1066:A0 9.17317e-05
22 *1167:CLK *1066:A1 0.000140524
23 *1167:CLK *256:286 0.000133788
24 *1169:CLK *319:10 8.79776e-05
25 *241:12 *319:10 0.000188699
26 *241:38 *319:10 0.000219468
27 *1016:A *1153:CLK 0
28 *1041:S *1167:CLK 0.0003497
29 *1066:S *1167:CLK 9.84673e-05
30 *1071:A *1169:CLK 0
31 *173:23 *1153:CLK 0.000182731
32 *173:34 *1153:CLK 7.8195e-05
*RES
1 *1197:X *241:8 15.4429 
2 *241:8 *241:10 0.946429 
3 *241:10 *241:12 4.67857 
4 *241:12 *1153:CLK 21.8536 
5 *241:12 *1143:CLK 20.4964 
6 *241:10 *241:38 5.28571 
7 *241:38 *1154:CLK 18.4429 
8 *241:38 *1169:CLK 16.5857 
9 *241:8 *241:62 8.32143 
10 *241:62 *1167:CLK 32.1929 
11 *241:62 *1152:CLK 9.3 
*END

*D_NET *242 0.00972757
*CONN
*I *1156:CLK I *D sky130_fd_sc_hd__dfrtp_1
*I *1192:CLK I *D sky130_fd_sc_hd__dfrtp_4
*I *1164:CLK I *D sky130_fd_sc_hd__dfrtp_1
*I *1155:CLK I *D sky130_fd_sc_hd__dfrtp_1
*I *1193:CLK I *D sky130_fd_sc_hd__dfrtp_4
*I *1194:CLK I *D sky130_fd_sc_hd__dfrtp_4
*I *1130:CLK I *D sky130_fd_sc_hd__dfrtp_1
*I *1157:CLK I *D sky130_fd_sc_hd__dfrtp_1
*I *1198:X O *D sky130_fd_sc_hd__clkbuf_16
*CAP
1 *1156:CLK 0.000467859
2 *1192:CLK 0
3 *1164:CLK 0.000400414
4 *1155:CLK 0
5 *1193:CLK 0.000122897
6 *1194:CLK 0.000220761
7 *1130:CLK 0
8 *1157:CLK 0.000281698
9 *1198:X 2.30322e-05
10 *242:86 0.000995595
11 *242:31 0.0011172
12 *242:23 0.000773544
13 *242:12 0.000590443
14 *242:10 0.000979029
15 *242:6 0.000820638
16 *1156:CLK *325:97 0.000171355
17 *1157:CLK *1194:RESET_B 0
18 *1164:CLK *243:10 0.000243537
19 *1164:CLK *243:31 0.000265615
20 *1193:CLK *324:26 5.54817e-06
21 *1194:CLK *1229:A 0.000319018
22 *1194:CLK *253:72 3.09985e-05
23 *242:12 *953:A 0.000333555
24 *242:12 *243:10 7.54868e-05
25 *242:31 *953:A 5.20669e-05
26 *242:31 *253:72 5.72945e-05
27 *242:86 *979:A0 0.000167988
28 *242:86 *1273:A 0.000148901
29 *242:86 *325:97 0
30 *242:86 *326:115 1.21258e-05
31 *972:A2 *1156:CLK 0.000143295
32 *980:A *1164:CLK 0
33 *980:A *242:10 2.82744e-05
34 *980:A *242:86 1.03757e-05
35 *1127:B *1194:CLK 1.34741e-05
36 *1155:D *1157:CLK 4.04221e-05
37 *1192:D *1156:CLK 8.26174e-05
38 *1193:D *1193:CLK 0.000124019
39 *93:133 *1193:CLK 6.23278e-05
40 *93:133 *1194:CLK 0.00020595
41 *93:141 *1194:CLK 0.000150461
42 *145:10 *1156:CLK 8.7392e-05
43 *145:40 *1156:CLK 0.000102367
*RES
1 *1198:X *242:6 9.72857 
2 *242:6 *242:10 7.5 
3 *242:10 *242:12 6.5 
4 *242:12 *1157:CLK 18.7821 
5 *242:12 *242:23 4.5 
6 *242:23 *242:31 10.3393 
7 *242:31 *1130:CLK 9.3 
8 *242:31 *1194:CLK 24.7643 
9 *242:31 *1193:CLK 20.55 
10 *242:23 *1155:CLK 9.3 
11 *242:10 *1164:CLK 22.425 
12 *242:6 *242:86 16.4107 
13 *242:86 *1192:CLK 9.3 
14 *242:86 *1156:CLK 28.8179 
*END

*D_NET *243 0.00934313
*CONN
*I *1161:CLK I *D sky130_fd_sc_hd__dfrtp_1
*I *1162:CLK I *D sky130_fd_sc_hd__dfrtp_1
*I *1131:CLK I *D sky130_fd_sc_hd__dfrtp_1
*I *1132:CLK I *D sky130_fd_sc_hd__dfrtp_1
*I *1163:CLK I *D sky130_fd_sc_hd__dfrtp_1
*I *1181:CLK I *D sky130_fd_sc_hd__dfrtp_1
*I *1190:CLK I *D sky130_fd_sc_hd__dfrtp_1
*I *1133:CLK I *D sky130_fd_sc_hd__dfrtp_1
*I *1199:X O *D sky130_fd_sc_hd__clkbuf_16
*CAP
1 *1161:CLK 0.000210153
2 *1162:CLK 4.48646e-05
3 *1131:CLK 0.00030448
4 *1132:CLK 0
5 *1163:CLK 0
6 *1181:CLK 0.000160929
7 *1190:CLK 5.5429e-05
8 *1133:CLK 0
9 *1199:X 0.000359012
10 *243:92 0.000580421
11 *243:77 0.00106071
12 *243:66 0.00109117
13 *243:35 0.000646907
14 *243:31 0.000795299
15 *243:12 0.00036475
16 *243:10 0.00101935
17 *1131:CLK *1005:A1 0
18 *1131:CLK *1132:RESET_B 8.94203e-05
19 *1131:CLK *1273:A 0
20 *1131:CLK *256:26 0.000117966
21 *1161:CLK *923:A 7.98856e-05
22 *1161:CLK *931:A2 7.74068e-05
23 *1161:CLK *1005:A1 0
24 *1162:CLK *371:8 0.000182804
25 *1181:CLK *1181:RESET_B 3.45026e-05
26 *243:10 *1163:RESET_B 0
27 *243:31 *1164:RESET_B 8.907e-05
28 *243:31 *367:23 0
29 *243:35 *367:23 0
30 *243:66 *930:B 0.000128154
31 *243:66 *1163:RESET_B 0
32 *946:A *243:35 0
33 *959:C1 *243:35 4.36401e-05
34 *1057:A *243:92 0.000127939
35 *1059:A *243:31 0
36 *1061:A *243:31 0
37 *1096:A *1181:CLK 9.15842e-06
38 *1131:D *1131:CLK 2.286e-05
39 *1133:D *243:31 0.000145725
40 *1162:D *1162:CLK 7.88091e-05
41 *1163:D *243:31 0.000248033
42 *1164:CLK *243:10 0.000243537
43 *1164:CLK *243:31 0.000265615
44 *1164:D *243:31 0
45 *1181:D *1181:CLK 5.50052e-05
46 *99:51 *1161:CLK 5.50052e-05
47 *99:69 *1190:CLK 0.000141935
48 *117:12 *243:35 6.66211e-05
49 *126:10 *243:10 0.000271077
50 *242:12 *243:10 7.54868e-05
*RES
1 *1199:X *243:10 20.4607 
2 *243:10 *243:12 4.5 
3 *243:12 *1133:CLK 9.3 
4 *243:12 *243:31 17.8036 
5 *243:31 *243:35 12.2143 
6 *243:35 *1190:CLK 15.1571 
7 *243:35 *1181:CLK 16.5857 
8 *243:31 *1163:CLK 9.3 
9 *243:10 *243:66 14.9464 
10 *243:66 *1132:CLK 9.3 
11 *243:66 *243:77 9.76786 
12 *243:77 *1131:CLK 19.4964 
13 *243:77 *243:92 6.5 
14 *243:92 *1162:CLK 15.5679 
15 *243:92 *1161:CLK 17.7286 
*END

*D_NET *244 0.00669115
*CONN
*I *1189:CLK I *D sky130_fd_sc_hd__dfrtp_1
*I *1171:CLK I *D sky130_fd_sc_hd__dfrtp_1
*I *1147:CLK I *D sky130_fd_sc_hd__dfrtp_1
*I *1182:CLK I *D sky130_fd_sc_hd__dfrtp_1
*I *1172:CLK I *D sky130_fd_sc_hd__dfrtp_1
*I *1148:CLK I *D sky130_fd_sc_hd__dfrtp_1
*I *1200:X O *D sky130_fd_sc_hd__clkbuf_16
*CAP
1 *1189:CLK 0.000740172
2 *1171:CLK 4.2953e-05
3 *1147:CLK 0
4 *1182:CLK 0.000162655
5 *1172:CLK 0.000331472
6 *1148:CLK 0.000317081
7 *1200:X 0
8 *244:58 0.000947252
9 *244:44 0.000301606
10 *244:36 0.000712683
11 *244:10 0.000970007
12 *244:4 0.000731058
13 *1172:CLK *1077:A 5.52238e-05
14 *1189:CLK *1020:A1 0.000261525
15 *1189:CLK *256:330 0
16 *244:44 *1024:A1 3.08561e-05
17 *244:44 *303:24 6.91442e-05
18 *1147:D *1182:CLK 4.97906e-05
19 *1147:D *244:44 4.5664e-05
20 *1171:D *1189:CLK 0.000255137
21 *1172:D *1172:CLK 3.40979e-05
22 *30:34 *1172:CLK 0.000118903
23 *30:34 *244:10 0.000513871
*RES
1 *1200:X *244:4 9.3 
2 *244:4 *244:10 11.9464 
3 *244:10 *1148:CLK 17.5321 
4 *244:10 *1172:CLK 20.1036 
5 *244:4 *244:36 4.64286 
6 *244:36 *244:44 12 
7 *244:44 *1182:CLK 12.3 
8 *244:44 *1147:CLK 9.3 
9 *244:36 *244:58 1.76786 
10 *244:58 *1171:CLK 10.0321 
11 *244:58 *1189:CLK 30.675 
*END

*D_NET *245 0.00764428
*CONN
*I *1139:CLK I *D sky130_fd_sc_hd__dfrtp_1
*I *1170:CLK I *D sky130_fd_sc_hd__dfrtp_1
*I *1146:CLK I *D sky130_fd_sc_hd__dfrtp_1
*I *1137:CLK I *D sky130_fd_sc_hd__dfrtp_1
*I *1179:CLK I *D sky130_fd_sc_hd__dfrtp_1
*I *1138:CLK I *D sky130_fd_sc_hd__dfrtp_1
*I *1178:CLK I *D sky130_fd_sc_hd__dfrtp_1
*I *1201:X O *D sky130_fd_sc_hd__clkbuf_16
*CAP
1 *1139:CLK 0.000629252
2 *1170:CLK 0
3 *1146:CLK 0
4 *1137:CLK 0
5 *1179:CLK 6.86038e-05
6 *1138:CLK 7.09753e-05
7 *1178:CLK 0.000207853
8 *1201:X 0.000442382
9 *245:63 0.000941873
10 *245:40 0.000401211
11 *245:25 0.000688344
12 *245:14 0.000737133
13 *245:12 0.000401722
14 *245:10 0.000912206
15 *1139:CLK *992:A 1.49942e-05
16 *1139:CLK *1139:RESET_B 8.79458e-05
17 *1139:CLK *1170:RESET_B 0.000155645
18 *1139:CLK *1204:A 0.000161378
19 *1178:CLK *1077:A 4.73164e-05
20 *1179:CLK *1179:RESET_B 0.000146956
21 *245:10 *1020:A1 0
22 *245:10 *1074:A1 4.64627e-05
23 *245:10 *1207:A 0.000115611
24 *245:10 *256:344 0
25 *245:10 *256:354 0
26 *245:10 *256:367 0
27 *245:12 *1146:RESET_B 9.46929e-05
28 *245:25 *303:30 0
29 *245:40 *1179:RESET_B 7.57312e-05
30 *245:40 *292:10 0
31 *245:63 *1146:RESET_B 1.91419e-05
32 *996:B1 *1139:CLK 0.000213882
33 *1021:A *245:10 0.000150625
34 *1021:A *245:63 0
35 *1073:A *1139:CLK 2.28343e-05
36 *1073:A *245:63 0.000155317
37 *1092:S *1139:CLK 0.000226126
38 *1092:S *1179:CLK 3.75912e-05
39 *1137:D *1179:CLK 9.83442e-05
40 *1137:D *245:40 6.8529e-05
41 *1138:D *1138:CLK 7.16247e-05
42 *1139:D *1139:CLK 7.18491e-05
43 *1146:D *245:12 3.17211e-05
44 *1179:D *1179:CLK 2.84026e-05
45 *30:47 *245:25 0
46 *30:47 *245:40 0
47 *93:219 *245:63 0
48 *102:43 *245:10 0
*RES
1 *1201:X *245:10 27.5321 
2 *245:10 *245:12 3 
3 *245:12 *245:14 3.82143 
4 *245:14 *1178:CLK 12.7107 
5 *245:14 *245:25 9.48214 
6 *245:25 *1138:CLK 15.1571 
7 *245:25 *245:40 10.8393 
8 *245:40 *1179:CLK 11.8893 
9 *245:40 *1137:CLK 9.3 
10 *245:12 *1146:CLK 9.3 
11 *245:10 *245:63 10.5714 
12 *245:63 *1170:CLK 13.8 
13 *245:63 *1139:CLK 28.6214 
*END

*D_NET *246 0.0106619
*CONN
*I *1175:CLK I *D sky130_fd_sc_hd__dfrtp_1
*I *1176:CLK I *D sky130_fd_sc_hd__dfrtp_1
*I *1141:CLK I *D sky130_fd_sc_hd__dfrtp_1
*I *1142:CLK I *D sky130_fd_sc_hd__dfrtp_1
*I *1187:CLK I *D sky130_fd_sc_hd__dfrtp_1
*I *1186:CLK I *D sky130_fd_sc_hd__dfrtp_1
*I *1174:CLK I *D sky130_fd_sc_hd__dfrtp_1
*I *1191:CLK I *D sky130_fd_sc_hd__dfrtp_1
*I *1202:X O *D sky130_fd_sc_hd__clkbuf_16
*CAP
1 *1175:CLK 0.000135365
2 *1176:CLK 0.000201995
3 *1141:CLK 6.44049e-05
4 *1142:CLK 4.28181e-05
5 *1187:CLK 4.76905e-05
6 *1186:CLK 0.000148225
7 *1174:CLK 0.000319135
8 *1191:CLK 0.00030216
9 *1202:X 0.000176828
10 *246:83 0.000949194
11 *246:52 0.000997905
12 *246:48 0.000987901
13 *246:46 0.00100536
14 *246:38 0.000495513
15 *246:23 0.000657366
16 *246:10 0.000636545
17 *1176:CLK *294:14 2.59355e-05
18 *246:23 *1191:RESET_B 6.55528e-06
19 *246:38 *1191:RESET_B 3.16245e-05
20 *246:46 *1191:RESET_B 0.000116169
21 *246:52 *942:A 2.78535e-05
22 *246:83 *1142:RESET_B 1.20907e-05
23 *246:83 *1221:A 2.85321e-05
24 *942:C *1142:CLK 6.68086e-05
25 *942:C *246:46 0.000169233
26 *942:C *246:48 1.76096e-05
27 *942:C *246:52 6.18487e-05
28 *955:A_N *1186:CLK 5.49311e-05
29 *968:B1 *1186:CLK 0.000124012
30 *1007:S *1141:CLK 0.000199782
31 *1083:A *1175:CLK 0.000136727
32 *1123:A *1174:CLK 3.63775e-05
33 *1123:A *1191:CLK 2.22999e-05
34 *1123:A *246:23 0
35 *1124:A *246:10 0.000101859
36 *1142:D *246:48 2.51343e-06
37 *1142:D *246:83 2.95143e-05
38 *1175:D *1175:CLK 5.33005e-05
39 *1191:D *1191:CLK 0.00012306
40 *1191:D *246:10 7.54868e-05
41 *1191:D *246:23 5.54655e-05
42 *30:113 *1174:CLK 0.000563596
43 *97:33 *1174:CLK 6.7009e-05
44 *97:33 *246:23 9.1382e-05
45 *102:112 *246:10 0
46 *102:112 *246:23 0
47 *102:112 *246:38 0
48 *115:14 *246:52 0.000670769
49 *126:198 *1174:CLK 0.000214443
50 *126:228 *1141:CLK 0.000104896
51 *134:12 *246:46 7.74068e-05
52 *219:22 *1186:CLK 0.000100618
53 *219:22 *1187:CLK 2.37944e-05
*RES
1 *1202:X *246:10 16.6036 
2 *246:10 *1191:CLK 17.9429 
3 *246:10 *246:23 3.46429 
4 *246:23 *1174:CLK 23.7821 
5 *246:23 *246:38 7.69643 
6 *246:38 *246:46 13.5 
7 *246:46 *246:48 1.76786 
8 *246:48 *246:52 15.7143 
9 *246:52 *1186:CLK 17.8714 
10 *246:52 *1187:CLK 14.5321 
11 *246:48 *1142:CLK 10.5679 
12 *246:46 *246:83 8.25 
13 *246:83 *1141:CLK 20.8536 
14 *246:83 *1176:CLK 12.3 
15 *246:38 *1175:CLK 11.8893 
*END

*D_NET *247 0.0130937
*CONN
*I *1134:CLK I *D sky130_fd_sc_hd__dfrtp_1
*I *1185:CLK I *D sky130_fd_sc_hd__dfrtp_1
*I *1184:CLK I *D sky130_fd_sc_hd__dfrtp_1
*I *1180:CLK I *D sky130_fd_sc_hd__dfrtp_1
*I *1177:CLK I *D sky130_fd_sc_hd__dfrtp_1
*I *1136:CLK I *D sky130_fd_sc_hd__dfrtp_1
*I *1140:CLK I *D sky130_fd_sc_hd__dfrtp_1
*I *1135:CLK I *D sky130_fd_sc_hd__dfrtp_1
*I *1173:CLK I *D sky130_fd_sc_hd__dfrtp_1
*I *1183:CLK I *D sky130_fd_sc_hd__dfrtp_4
*I *1188:CLK I *D sky130_fd_sc_hd__dfrtp_1
*I *1203:X O *D sky130_fd_sc_hd__clkbuf_16
*CAP
1 *1134:CLK 0.000361469
2 *1185:CLK 0
3 *1184:CLK 0
4 *1180:CLK 0.000172139
5 *1177:CLK 0.000124293
6 *1136:CLK 0.000378584
7 *1140:CLK 0.000344472
8 *1135:CLK 0.000139871
9 *1173:CLK 0
10 *1183:CLK 0
11 *1188:CLK 0.000276608
12 *1203:X 0.00018782
13 *247:115 0.000734941
14 *247:103 0.000943644
15 *247:97 0.00101126
16 *247:64 0.000723055
17 *247:62 0.000672753
18 *247:41 0.000944495
19 *247:32 0.000314021
20 *247:26 0.000520777
21 *247:12 0.000689578
22 *247:8 0.00079476
23 *1135:CLK *256:753 8.71056e-05
24 *1136:CLK *982:A 4.60115e-05
25 *1136:CLK *989:A0 6.54574e-05
26 *1140:CLK *989:A0 1.52978e-05
27 *1140:CLK *1231:A 1.97695e-05
28 *1177:CLK *989:A0 4.72917e-05
29 *1177:CLK *270:18 6.19598e-05
30 *247:8 *256:688 0
31 *247:8 *256:696 0
32 *247:12 *1183:RESET_B 2.29097e-05
33 *247:26 *256:688 0
34 *247:62 *941:A 5.15078e-05
35 *247:62 *989:A0 0.000142717
36 *247:62 *1173:RESET_B 0.000350836
37 *247:97 *256:688 0
38 *247:97 *256:753 0
39 *247:103 *1185:RESET_B 2.48941e-05
40 *986:B1 *1136:CLK 4.96701e-05
41 *986:C1 *1136:CLK 4.26814e-05
42 *990:A *247:62 0.000105163
43 *1087:A *1177:CLK 5.52238e-05
44 *1093:A *1180:CLK 2.48421e-05
45 *1100:B *1188:CLK 2.59355e-05
46 *1100:C *1188:CLK 5.03772e-05
47 *1102:A *1188:CLK 3.98517e-05
48 *1102:B *1188:CLK 7.77751e-05
49 *1102:C *1188:CLK 2.23227e-05
50 *1103:A *1188:CLK 3.18676e-05
51 *1103:A *247:12 3.18676e-05
52 *1173:D *247:26 7.6644e-05
53 *1173:D *247:32 5.67156e-05
54 *1173:D *247:41 1.44281e-05
55 *1177:D *1177:CLK 5.65955e-05
56 *1180:D *1180:CLK 3.11088e-05
57 *1183:D *247:12 1.08881e-05
58 *1184:D *1180:CLK 3.67279e-06
59 *99:22 *1135:CLK 0.000354985
60 *99:124 *247:103 0.000155306
61 *99:124 *247:115 2.11336e-05
62 *102:10 *247:26 1.08847e-05
63 *102:10 *247:97 7.91743e-05
64 *102:108 *247:8 0.00033708
65 *102:108 *247:26 0.000118176
66 *114:8 *247:8 0
67 *126:242 *1135:CLK 0.000205607
68 *127:61 *1188:CLK 8.53294e-05
69 *154:21 *1136:CLK 0.000490361
70 *154:21 *1140:CLK 1.02504e-05
71 *154:27 *1140:CLK 0.000147474
*RES
1 *1203:X *247:8 18.175 
2 *247:8 *247:12 11.6071 
3 *247:12 *1188:CLK 15.5857 
4 *247:12 *1183:CLK 9.3 
5 *247:8 *247:26 4.375 
6 *247:26 *247:32 5.875 
7 *247:32 *1173:CLK 9.3 
8 *247:32 *247:41 4.25 
9 *247:41 *1135:CLK 23.9607 
10 *247:41 *247:62 11.7857 
11 *247:62 *247:64 4.5 
12 *247:64 *1140:CLK 19.6036 
13 *247:64 *1136:CLK 23.3357 
14 *247:62 *1177:CLK 12.3 
15 *247:26 *247:97 5.28571 
16 *247:97 *247:103 12.0357 
17 *247:103 *247:115 16.5536 
18 *247:115 *1180:CLK 21.6393 
19 *247:115 *1184:CLK 9.3 
20 *247:103 *1185:CLK 9.3 
21 *247:97 *1134:CLK 19.7286 
*END

*D_NET *248 0.00014024
*CONN
*I *919:A I *D sky130_fd_sc_hd__buf_4
*I *1251:X O *D sky130_fd_sc_hd__clkbuf_1
*CAP
1 *919:A 7.01202e-05
2 *1251:X 7.01202e-05
*RES
1 *1251:X *919:A 19.8679 
*END

*D_NET *249 0.00410946
*CONN
*I *1013:A2 I *D sky130_fd_sc_hd__a22o_1
*I *1014:A2 I *D sky130_fd_sc_hd__o221a_2
*I *1019:A2 I *D sky130_fd_sc_hd__a21o_1
*I *1252:X O *D sky130_fd_sc_hd__buf_1
*CAP
1 *1013:A2 0
2 *1014:A2 0.00030373
3 *1019:A2 1.67333e-05
4 *1252:X 0.000731606
5 *249:27 0.000580456
6 *249:10 0.00102507
7 *1014:A2 *1017:A1 4.89168e-05
8 *1014:A2 *256:189 0
9 *1014:A2 *320:30 0
10 *1019:A2 *1019:B1 5.49656e-06
11 *249:27 *256:189 0.000127589
12 *1014:A1 *1014:A2 7.80167e-05
13 *1014:B2 *1014:A2 0.000123295
14 *1014:B2 *249:27 2.8078e-05
15 *1036:A1 *1019:A2 3.53438e-05
16 *1036:A1 *249:10 0.000459659
17 *93:18 *249:27 0.000389505
18 *93:66 *1014:A2 9.73239e-06
19 *93:66 *249:27 0.000146239
*RES
1 *1252:X *249:10 25.4607 
2 *249:10 *1019:A2 14.2688 
3 *249:10 *249:27 11.5536 
4 *249:27 *1014:A2 22.9429 
5 *249:27 *1013:A2 9.3 
*END

*D_NET *250 0.00839558
*CONN
*I *1032:A1 I *D sky130_fd_sc_hd__mux2_1
*I *1029:B1 I *D sky130_fd_sc_hd__o211a_1
*I *1253:X O *D sky130_fd_sc_hd__buf_1
*CAP
1 *1032:A1 9.68746e-05
2 *1029:B1 0.000340073
3 *1253:X 0.00207493
4 *250:14 0.00251188
5 *1029:B1 *1028:A 0.000320024
6 *1029:B1 *252:23 2.51343e-06
7 *1032:A1 *1032:A0 6.07328e-05
8 *1032:A1 *345:12 0
9 *250:14 *969:A 0.000399841
10 *250:14 *1028:A 0.000389855
11 *250:14 *1032:A0 5.65955e-05
12 *250:14 *1047:B1 0.000262058
13 *250:14 *1215:A 5.52238e-05
14 *250:14 *255:22 0.000420717
15 *250:14 *255:35 0.00011674
16 *1029:A2 *1029:B1 0.000332402
17 *1029:C1 *1029:B1 0.000465347
18 *1033:A *1032:A1 0
19 *1047:A2 *250:14 0.000185965
20 *1049:A *250:14 7.77751e-05
21 *1157:D *250:14 9.74665e-05
22 *1253:A *250:14 2.84109e-05
23 *1258:A *1029:B1 1.21289e-05
24 *1267:A *250:14 7.77751e-05
25 *184:32 *1032:A1 1.02504e-05
*RES
1 *1253:X *250:14 49.55 
2 *250:14 *1029:B1 18.3714 
3 *250:14 *1032:A1 20.2464 
*END

*D_NET *251 0.00524924
*CONN
*I *1029:A1 I *D sky130_fd_sc_hd__o211a_1
*I *1030:B1 I *D sky130_fd_sc_hd__a22o_1
*I *1034:A1 I *D sky130_fd_sc_hd__mux2_1
*I *1254:X O *D sky130_fd_sc_hd__buf_1
*CAP
1 *1029:A1 3.4857e-05
2 *1030:B1 0.000642327
3 *1034:A1 0.000149374
4 *1254:X 0.000685711
5 *251:14 0.00104048
6 *251:6 0.00096935
7 *1029:A1 *252:23 1.32552e-05
8 *1034:A1 *1034:A0 0.000126416
9 *1034:A1 *320:22 0
10 *251:6 *1036:B1 0.000444906
11 *251:6 *252:23 0.000152354
12 *251:14 *252:23 6.8646e-06
13 *251:14 *320:22 0
14 *1029:A2 *1029:A1 6.10501e-05
15 *1030:A1 *1030:B1 3.57366e-05
16 *1030:B2 *1030:B1 1.39841e-05
17 *1031:B1 *1029:A1 5.52302e-05
18 *1031:B1 *251:6 9.90367e-05
19 *1031:B1 *251:14 0.000107408
20 *1149:D *1030:B1 5.33005e-05
21 *1151:D *251:6 0.000232399
22 *1158:CLK *1030:B1 0.000131874
23 *184:65 *1034:A1 0
24 *184:65 *251:14 0
25 *240:48 *1030:B1 2.77173e-05
26 *240:50 *1030:B1 0.000165612
*RES
1 *1254:X *251:6 23.3893 
2 *251:6 *251:14 8.77679 
3 *251:14 *1034:A1 17.1125 
4 *251:14 *1030:B1 31.8982 
5 *251:6 *1029:A1 10.5679 
*END

*D_NET *252 0.00315197
*CONN
*I *1030:A2 I *D sky130_fd_sc_hd__a22o_1
*I *1031:A2 I *D sky130_fd_sc_hd__o221a_2
*I *1036:A2 I *D sky130_fd_sc_hd__a21o_1
*I *1255:X O *D sky130_fd_sc_hd__buf_1
*CAP
1 *1030:A2 0.00010934
2 *1031:A2 0
3 *1036:A2 0.000108176
4 *1255:X 0
5 *252:23 0.00096165
6 *252:4 0.000960487
7 *1036:A2 *1036:B1 7.59551e-05
8 *252:23 *1027:A 0
9 *252:23 *1036:B1 6.67484e-05
10 *252:23 *320:22 0
11 *1029:A1 *252:23 1.32552e-05
12 *1029:A2 *252:23 4.45768e-06
13 *1029:B1 *252:23 2.51343e-06
14 *1030:A1 *1030:A2 0.000131959
15 *1030:B2 *1030:A2 7.50713e-05
16 *1031:A1 *1030:A2 9.90431e-05
17 *1031:B1 *252:23 6.74911e-05
18 *1031:B2 *1030:A2 0.00022459
19 *1036:A1 *1036:A2 1.24368e-05
20 *1258:A *252:23 0
21 *184:8 *1030:A2 5.33005e-05
22 *184:20 *1030:A2 7.48301e-06
23 *184:20 *252:23 1.87955e-05
24 *251:6 *252:23 0.000152354
25 *251:14 *252:23 6.8646e-06
*RES
1 *1255:X *252:4 9.3 
2 *252:4 *1036:A2 11.5143 
3 *252:4 *252:23 20.5 
4 *252:23 *1031:A2 9.3 
5 *252:23 *1030:A2 13.5857 
*END

*D_NET *253 0.0150226
*CONN
*I *972:B1 I *D sky130_fd_sc_hd__o211a_1
*I *1043:A1 I *D sky130_fd_sc_hd__mux2_1
*I *1256:X O *D sky130_fd_sc_hd__buf_1
*CAP
1 *972:B1 0.000175542
2 *1043:A1 0
3 *1256:X 0.00175427
4 *253:72 0.00193488
5 *253:56 0.00373215
6 *253:20 0.00372709
7 *253:20 *1092:A0 0
8 *253:20 *314:22 0.000184961
9 *253:20 *361:8 0
10 *253:20 *361:12 0
11 *253:20 *375:10 0.000148903
12 *253:20 *375:20 0.00015043
13 *253:56 *946:B 0
14 *253:56 *948:B1 9.20513e-06
15 *253:56 *1062:A0 0
16 *253:56 *1116:B1 5.52302e-05
17 *253:56 *1190:RESET_B 0
18 *253:56 *369:8 0
19 *253:56 *376:8 0.000101233
20 *253:72 *1043:A0 3.50746e-05
21 *253:72 *1050:A1 7.71485e-05
22 *253:72 *1060:A1 5.25941e-05
23 *253:72 *1128:A 1.32293e-05
24 *253:72 *1194:RESET_B 0.000124749
25 *253:72 *1214:A 5.08826e-05
26 *253:72 *1229:A 9.41642e-05
27 *938:A1 *253:20 3.22057e-05
28 *951:C1 *253:56 0.000108329
29 *963:A_N *253:20 0.000172285
30 *963:B *253:20 1.64026e-05
31 *972:A2 *972:B1 1.02301e-05
32 *972:C1 *972:B1 5.50052e-05
33 *997:B2 *253:20 0
34 *1043:S *972:B1 3.15815e-05
35 *1044:A *253:72 0.000198876
36 *1050:S *253:56 1.00887e-05
37 *1097:A1 *253:20 0.000161915
38 *1116:A2 *253:56 8.02124e-05
39 *1120:A *253:56 0
40 *1139:D *253:20 0
41 *1155:D *253:72 3.08664e-05
42 *1194:CLK *253:72 3.09985e-05
43 *93:122 *253:56 0
44 *93:213 *253:20 0
45 *93:213 *253:56 0
46 *98:30 *253:56 0
47 *98:38 *253:56 0
48 *106:10 *253:20 1.21309e-05
49 *108:12 *253:20 0.000309035
50 *119:14 *253:56 0.000153502
51 *124:10 *253:56 0.000179154
52 *124:14 *253:56 0.000325333
53 *124:23 *253:56 1.39726e-05
54 *124:55 *253:56 3.39618e-05
55 *126:22 *253:56 0.000339256
56 *130:10 *253:20 4.60563e-05
57 *130:10 *253:56 0.000136418
58 *137:10 *253:20 5.57515e-05
59 *239:18 *253:20 0
60 *242:31 *253:72 5.72945e-05
*RES
1 *1256:X *253:20 48.0589 
2 *253:20 *253:56 48.1518 
3 *253:56 *253:72 38.8393 
4 *253:72 *1043:A1 9.3 
5 *253:72 *972:B1 12.3179 
*END

*D_NET *254 0.00322937
*CONN
*I *973:B1 I *D sky130_fd_sc_hd__a22o_1
*I *1045:A1 I *D sky130_fd_sc_hd__mux2_1
*I *972:A1 I *D sky130_fd_sc_hd__o211a_1
*I *1257:X O *D sky130_fd_sc_hd__buf_1
*CAP
1 *973:B1 0
2 *1045:A1 0.000155326
3 *972:A1 0.000406708
4 *1257:X 0.000624288
5 *254:14 0.00071116
6 *254:10 0.000773414
7 *972:A1 *1156:RESET_B 3.62988e-05
8 *1045:A1 *1045:A0 5.4959e-05
9 *254:10 *973:A2 1.97695e-05
10 *972:A2 *972:A1 0.000178707
11 *973:B2 *254:10 0.00010096
12 *973:B2 *254:14 0
13 *1046:A *1045:A1 3.75959e-05
14 *1046:A *254:10 2.44318e-05
15 *1046:A *254:14 0.000100549
16 *1156:D *972:A1 5.19842e-06
17 *1257:A *254:10 0
18 *145:10 *254:14 0
*RES
1 *1257:X *254:10 20.1393 
2 *254:10 *254:14 7.66071 
3 *254:14 *972:A1 20.0143 
4 *254:14 *1045:A1 16.925 
5 *254:10 *973:B1 9.3 
*END

*D_NET *255 0.00762574
*CONN
*I *973:A2 I *D sky130_fd_sc_hd__a22o_1
*I *974:A2 I *D sky130_fd_sc_hd__o221a_2
*I *1047:A1 I *D sky130_fd_sc_hd__a21o_1
*I *1258:X O *D sky130_fd_sc_hd__buf_1
*CAP
1 *973:A2 0.000105463
2 *974:A2 0
3 *1047:A1 0
4 *1258:X 0.000850543
5 *255:35 0.000680756
6 *255:22 0.00117185
7 *255:20 0.0014471
8 *255:20 *320:16 0.00115247
9 *255:35 *969:A 0.000168057
10 *255:35 *1047:B1 0.000361447
11 *255:35 *1215:A 3.18676e-05
12 *255:35 *1273:A 0
13 o_index[1] *255:35 0.000363837
14 *973:A1 *973:A2 9.61553e-05
15 *974:A1 *973:A2 5.52238e-05
16 *974:B1 *973:A2 1.24368e-05
17 *974:B2 *973:A2 0.000227539
18 *1047:A2 *255:22 3.13687e-05
19 *1047:A2 *255:35 4.85967e-05
20 *1258:A *255:20 0
21 *1267:A *255:20 7.83659e-05
22 *1267:A *255:22 0.000142856
23 *140:10 *255:35 4.25716e-05
24 *250:14 *255:22 0.000420717
25 *250:14 *255:35 0.00011674
26 *254:10 *973:A2 1.97695e-05
*RES
1 *1258:X *255:20 40.6036 
2 *255:20 *255:22 12.0357 
3 *255:22 *1047:A1 9.3 
4 *255:22 *255:35 22.25 
5 *255:35 *974:A2 9.3 
6 *255:35 *973:A2 12.7286 
*END

*D_NET *256 0.0867149
*CONN
*I *1136:RESET_B I *D sky130_fd_sc_hd__dfrtp_1
*I *1134:RESET_B I *D sky130_fd_sc_hd__dfrtp_1
*I *1180:RESET_B I *D sky130_fd_sc_hd__dfrtp_1
*I *1184:RESET_B I *D sky130_fd_sc_hd__dfrtp_1
*I *1185:RESET_B I *D sky130_fd_sc_hd__dfrtp_1
*I *1183:RESET_B I *D sky130_fd_sc_hd__dfrtp_4
*I *1142:RESET_B I *D sky130_fd_sc_hd__dfrtp_1
*I *1191:RESET_B I *D sky130_fd_sc_hd__dfrtp_1
*I *1187:RESET_B I *D sky130_fd_sc_hd__dfrtp_1
*I *1186:RESET_B I *D sky130_fd_sc_hd__dfrtp_1
*I *1173:RESET_B I *D sky130_fd_sc_hd__dfrtp_1
*I *1135:RESET_B I *D sky130_fd_sc_hd__dfrtp_1
*I *1177:RESET_B I *D sky130_fd_sc_hd__dfrtp_1
*I *1140:RESET_B I *D sky130_fd_sc_hd__dfrtp_1
*I *1141:RESET_B I *D sky130_fd_sc_hd__dfrtp_1
*I *1176:RESET_B I *D sky130_fd_sc_hd__dfrtp_1
*I *1175:RESET_B I *D sky130_fd_sc_hd__dfrtp_1
*I *1174:RESET_B I *D sky130_fd_sc_hd__dfrtp_1
*I *1161:RESET_B I *D sky130_fd_sc_hd__dfrtp_1
*I *1162:RESET_B I *D sky130_fd_sc_hd__dfrtp_1
*I *1131:RESET_B I *D sky130_fd_sc_hd__dfrtp_1
*I *1165:RESET_B I *D sky130_fd_sc_hd__dfrtp_1
*I *1168:RESET_B I *D sky130_fd_sc_hd__dfrtp_1
*I *1166:RESET_B I *D sky130_fd_sc_hd__dfrtp_1
*I *1159:RESET_B I *D sky130_fd_sc_hd__dfrtp_1
*I *1149:RESET_B I *D sky130_fd_sc_hd__dfrtp_1
*I *1158:RESET_B I *D sky130_fd_sc_hd__dfrtp_1
*I *1167:RESET_B I *D sky130_fd_sc_hd__dfrtp_1
*I *1181:RESET_B I *D sky130_fd_sc_hd__dfrtp_1
*I *1190:RESET_B I *D sky130_fd_sc_hd__dfrtp_1
*I *1170:RESET_B I *D sky130_fd_sc_hd__dfrtp_1
*I *1139:RESET_B I *D sky130_fd_sc_hd__dfrtp_1
*I *1178:RESET_B I *D sky130_fd_sc_hd__dfrtp_1
*I *1182:RESET_B I *D sky130_fd_sc_hd__dfrtp_1
*I *1179:RESET_B I *D sky130_fd_sc_hd__dfrtp_1
*I *1137:RESET_B I *D sky130_fd_sc_hd__dfrtp_1
*I *1138:RESET_B I *D sky130_fd_sc_hd__dfrtp_1
*I *1146:RESET_B I *D sky130_fd_sc_hd__dfrtp_1
*I *1188:RESET_B I *D sky130_fd_sc_hd__dfrtp_1
*I *1172:RESET_B I *D sky130_fd_sc_hd__dfrtp_1
*I *1148:RESET_B I *D sky130_fd_sc_hd__dfrtp_1
*I *1171:RESET_B I *D sky130_fd_sc_hd__dfrtp_1
*I *1147:RESET_B I *D sky130_fd_sc_hd__dfrtp_1
*I *1189:RESET_B I *D sky130_fd_sc_hd__dfrtp_1
*I *1154:RESET_B I *D sky130_fd_sc_hd__dfrtp_1
*I *1169:RESET_B I *D sky130_fd_sc_hd__dfrtp_1
*I *1152:RESET_B I *D sky130_fd_sc_hd__dfrtp_1
*I *1153:RESET_B I *D sky130_fd_sc_hd__dfrtp_1
*I *1160:RESET_B I *D sky130_fd_sc_hd__dfrtp_1
*I *1150:RESET_B I *D sky130_fd_sc_hd__dfrtp_1
*I *1151:RESET_B I *D sky130_fd_sc_hd__dfrtp_1
*I *1145:RESET_B I *D sky130_fd_sc_hd__dfrtp_1
*I *1144:RESET_B I *D sky130_fd_sc_hd__dfrtp_1
*I *1143:RESET_B I *D sky130_fd_sc_hd__dfrtp_1
*I *1164:RESET_B I *D sky130_fd_sc_hd__dfrtp_1
*I *1163:RESET_B I *D sky130_fd_sc_hd__dfrtp_1
*I *1133:RESET_B I *D sky130_fd_sc_hd__dfrtp_1
*I *1192:RESET_B I *D sky130_fd_sc_hd__dfrtp_4
*I *1193:RESET_B I *D sky130_fd_sc_hd__dfrtp_4
*I *1194:RESET_B I *D sky130_fd_sc_hd__dfrtp_4
*I *1130:RESET_B I *D sky130_fd_sc_hd__dfrtp_1
*I *1157:RESET_B I *D sky130_fd_sc_hd__dfrtp_1
*I *1155:RESET_B I *D sky130_fd_sc_hd__dfrtp_1
*I *1156:RESET_B I *D sky130_fd_sc_hd__dfrtp_1
*I *1132:RESET_B I *D sky130_fd_sc_hd__dfrtp_1
*I *1259:X O *D sky130_fd_sc_hd__buf_12
*CAP
1 *1136:RESET_B 0.000481717
2 *1134:RESET_B 0.000404395
3 *1180:RESET_B 0.000166436
4 *1184:RESET_B 3.22534e-05
5 *1185:RESET_B 0.000228341
6 *1183:RESET_B 0.000231794
7 *1142:RESET_B 0.00013154
8 *1191:RESET_B 0.000366224
9 *1187:RESET_B 0
10 *1186:RESET_B 0.00027732
11 *1173:RESET_B 0.000355531
12 *1135:RESET_B 1.12314e-05
13 *1177:RESET_B 7.39294e-05
14 *1140:RESET_B 8.31057e-05
15 *1141:RESET_B 5.16946e-05
16 *1176:RESET_B 0
17 *1175:RESET_B 0.000296282
18 *1174:RESET_B 2.69709e-05
19 *1161:RESET_B 8.77672e-05
20 *1162:RESET_B 6.22767e-05
21 *1131:RESET_B 0.000150691
22 *1165:RESET_B 6.79537e-06
23 *1168:RESET_B 7.04149e-05
24 *1166:RESET_B 0
25 *1159:RESET_B 0.000308873
26 *1149:RESET_B 0
27 *1158:RESET_B 0.000640271
28 *1167:RESET_B 1.20145e-05
29 *1181:RESET_B 0.000948169
30 *1190:RESET_B 0.000147601
31 *1170:RESET_B 0.000455686
32 *1139:RESET_B 0.000751865
33 *1178:RESET_B 5.59366e-05
34 *1182:RESET_B 0.000830127
35 *1179:RESET_B 0.00173604
36 *1137:RESET_B 0.000256681
37 *1138:RESET_B 0
38 *1146:RESET_B 0.00012287
39 *1188:RESET_B 0.000402866
40 *1172:RESET_B 0.000402866
41 *1148:RESET_B 0.000267541
42 *1171:RESET_B 0
43 *1147:RESET_B 0
44 *1189:RESET_B 0.000389484
45 *1154:RESET_B 0.000307531
46 *1169:RESET_B 4.00857e-05
47 *1152:RESET_B 6.13971e-05
48 *1153:RESET_B 5.51664e-05
49 *1160:RESET_B 3.47592e-05
50 *1150:RESET_B 0.000364186
51 *1151:RESET_B 6.72784e-05
52 *1145:RESET_B 2.95881e-05
53 *1144:RESET_B 0
54 *1143:RESET_B 0.000337159
55 *1164:RESET_B 0.00144134
56 *1163:RESET_B 0.00127497
57 *1133:RESET_B 0.000763569
58 *1192:RESET_B 0
59 *1193:RESET_B 2.90538e-05
60 *1194:RESET_B 0.000317458
61 *1130:RESET_B 0
62 *1157:RESET_B 0.000206272
63 *1155:RESET_B 0.00062369
64 *1156:RESET_B 0.000219329
65 *1132:RESET_B 4.62027e-05
66 *1259:X 6.47802e-05
67 *256:771 0.000964537
68 *256:753 0.00124136
69 *256:720 0.000688117
70 *256:702 0.0010195
71 *256:696 0.00108939
72 *256:688 0.00073183
73 *256:682 0.000681188
74 *256:668 0.00103739
75 *256:656 0.000604769
76 *256:654 0.000901732
77 *256:638 0.000384221
78 *256:628 0.000564442
79 *256:618 0.000460382
80 *256:611 0.000228056
81 *256:599 0.000661888
82 *256:589 0.000471116
83 *256:512 0.000928156
84 *256:510 0.000929683
85 *256:471 0.001612
86 *256:461 0.00118928
87 *256:405 0.00136956
88 *256:393 0.00158488
89 *256:377 0.000400181
90 *256:367 0.000449542
91 *256:354 0.000208322
92 *256:344 0.000434296
93 *256:337 0.000185412
94 *256:330 0.000268097
95 *256:318 0.000664393
96 *256:296 0.000518073
97 *256:292 0.000497319
98 *256:286 0.00113161
99 *256:266 0.00050001
100 *256:254 0.000643461
101 *256:222 0.000846845
102 *256:210 0.000481375
103 *256:189 0.000791536
104 *256:179 0.000903948
105 *256:177 0.00139631
106 *256:175 0.000969796
107 *256:171 0.000242755
108 *256:169 0.000438759
109 *256:165 0.000798832
110 *256:83 0.00050791
111 *256:77 0.000874145
112 *256:64 0.000860912
113 *256:40 0.00105024
114 *256:38 0.000386294
115 *256:36 0.000647934
116 *256:26 0.000584567
117 *256:16 0.000884231
118 *256:12 0.000538102
119 *256:10 0.000363751
120 *256:8 0.000460553
121 *1133:RESET_B *1220:A 0.000317082
122 *1134:RESET_B *983:A 7.26481e-05
123 *1134:RESET_B *327:6 2.51343e-06
124 *1136:RESET_B *985:B2 0.000364967
125 *1136:RESET_B *281:29 4.97054e-05
126 *1137:RESET_B *996:B2 6.88118e-05
127 *1137:RESET_B *998:A0 0.00012249
128 *1137:RESET_B *303:47 0.000163063
129 *1139:RESET_B *992:A 5.49995e-05
130 *1139:RESET_B *1204:A 3.87674e-05
131 *1139:RESET_B *333:8 2.89016e-05
132 *1141:RESET_B *1084:A1 8.92098e-05
133 *1143:RESET_B *1012:B1 0.000202128
134 *1143:RESET_B *319:10 8.97475e-05
135 *1148:RESET_B *1024:A1 0.000144773
136 *1148:RESET_B *1207:A 0.000571868
137 *1150:RESET_B *1026:A 3.18676e-05
138 *1150:RESET_B *320:22 0.000126289
139 *1150:RESET_B *347:6 0.000170899
140 *1154:RESET_B *1022:A1 0.000249486
141 *1154:RESET_B *1070:A0 0.000141975
142 *1154:RESET_B *1070:A1 0.000139913
143 *1154:RESET_B *1205:A 0.000226846
144 *1154:RESET_B *303:24 0.000141736
145 *1155:RESET_B *1043:A0 1.48114e-05
146 *1155:RESET_B *1236:A 6.44379e-05
147 *1155:RESET_B *351:6 4.41588e-05
148 *1157:RESET_B *1043:A0 7.74068e-05
149 *1157:RESET_B *1273:A 0
150 *1157:RESET_B *326:115 9.08656e-05
151 *1159:RESET_B *326:36 0.000128043
152 *1162:RESET_B *371:8 0.0001326
153 *1163:RESET_B *930:B 6.42704e-05
154 *1163:RESET_B *1224:A 8.75082e-05
155 *1164:RESET_B *930:B 7.43578e-06
156 *1164:RESET_B *1060:A0 1.97381e-05
157 *1164:RESET_B *1222:A 0.000230482
158 *1164:RESET_B *1224:A 0
159 *1164:RESET_B *367:6 2.51837e-05
160 *1167:RESET_B *951:A2 1.04707e-05
161 *1170:RESET_B *997:A2 8.61222e-05
162 *1173:RESET_B *941:A 9.39411e-05
163 *1173:RESET_B *984:A2 0
164 *1175:RESET_B *1080:A0 0.000272028
165 *1175:RESET_B *1080:A1 5.66971e-05
166 *1177:RESET_B *270:16 0.000134174
167 *1177:RESET_B *270:18 5.33005e-05
168 *1181:RESET_B *266:16 0.000141935
169 *1182:RESET_B *1274:A 0.000175281
170 *1182:RESET_B *319:10 0
171 *1183:RESET_B *355:6 5.20669e-05
172 *1185:RESET_B *929:A 0.000183955
173 *1188:RESET_B *937:B_N 0.000227532
174 *1188:RESET_B *1076:A0 6.09789e-05
175 *1188:RESET_B *363:21 2.77289e-05
176 *1188:RESET_B *375:10 6.60867e-05
177 *1190:RESET_B *324:70 0.000137639
178 *1191:RESET_B *932:A1 0.000465907
179 *1193:RESET_B *325:8 2.72654e-05
180 *1194:RESET_B *1128:A 7.83659e-05
181 *1194:RESET_B *326:8 4.18895e-05
182 *1194:RESET_B *326:18 5.048e-05
183 *256:12 *1054:A0 0.000137832
184 *256:12 *1218:A 3.14003e-05
185 *256:16 *1054:A0 0.000124749
186 *256:16 *1218:A 0.000126272
187 *256:26 *1217:A 0.000271076
188 *256:36 *977:A0 0.000120636
189 *256:36 *1005:A1 0.00027338
190 *256:36 *325:97 0.000117189
191 *256:38 *324:106 0
192 *256:38 *325:97 0.000169099
193 *256:77 *325:8 6.97022e-05
194 *256:77 *325:97 0.000461448
195 *256:77 *326:115 3.70696e-05
196 *256:83 *325:8 3.20935e-05
197 *256:165 *367:6 5.83242e-05
198 *256:169 *1064:A0 0.000528067
199 *256:171 *1064:A1 0.000114594
200 *256:175 *1064:A1 4.93722e-05
201 *256:189 *1017:A1 0
202 *256:254 *326:53 0.000449924
203 *256:266 *1022:A1 0.000335355
204 *256:266 *326:53 4.17673e-05
205 *256:286 *1022:A1 0.000260617
206 *256:286 *1041:A0 0.000103039
207 *256:286 *1066:A1 6.75704e-05
208 *256:292 *1020:A1 0
209 *256:292 *1022:A1 0
210 *256:292 *1041:A0 0
211 *256:292 *1070:A1 0
212 *256:296 *366:6 0.000122081
213 *256:318 *1020:A1 0
214 *256:330 *1020:A1 0
215 *256:337 *296:10 0.000172285
216 *256:344 *1074:A1 0.000238595
217 *256:344 *296:10 0.000101908
218 *256:354 *1207:A 0.000128154
219 *256:367 *1207:A 0.000200413
220 *256:377 *303:47 0.000173021
221 *256:405 *260:12 0.00014925
222 *256:405 *319:10 0
223 *256:461 *1066:A1 0.000219064
224 *256:471 *951:A2 9.33652e-05
225 *256:471 *364:6 2.06695e-05
226 *256:628 *1080:A1 0
227 *256:628 *1227:A 0.000126875
228 *256:628 *1230:A 8.00806e-05
229 *256:638 *985:B2 3.17148e-05
230 *256:654 *985:B2 0.000179828
231 *256:688 *941:A 0.000139355
232 *256:688 *355:17 0
233 *256:696 *355:17 0
234 *256:696 *355:53 3.33238e-05
235 *256:702 *1112:B1 2.63877e-05
236 *256:702 *1247:A 5.06672e-05
237 *256:702 *355:53 0.000102121
238 *256:702 *355:61 8.32001e-05
239 *256:720 *355:53 4.01254e-05
240 *256:753 *929:A 2.81946e-05
241 *256:771 *926:A 5.4959e-05
242 *935:C1 *1188:RESET_B 0.000441731
243 *951:B1 *256:471 0
244 *972:A1 *1156:RESET_B 3.62988e-05
245 *984:C1 *1134:RESET_B 2.48421e-05
246 *990:A *1134:RESET_B 0.000126416
247 *990:A *1173:RESET_B 0.000197378
248 *996:B1 *1170:RESET_B 0.000193596
249 *1013:B1 *256:254 7.50601e-05
250 *1014:A1 *256:189 0
251 *1014:A2 *256:189 0
252 *1021:A *256:367 3.5707e-05
253 *1021:A *256:377 6.03708e-05
254 *1024:S *1148:RESET_B 9.90367e-05
255 *1036:A1 *256:222 0
256 *1041:S *256:266 0.000306076
257 *1041:S *256:286 0.000197516
258 *1043:S *1155:RESET_B 3.98542e-05
259 *1059:A *1163:RESET_B 0.000196964
260 *1059:A *1164:RESET_B 0.00012059
261 *1061:A *1164:RESET_B 0
262 *1070:S *1154:RESET_B 2.89114e-05
263 *1076:S *256:344 3.34295e-05
264 *1076:S *256:354 0.000166269
265 *1076:S *256:367 0.000190155
266 *1080:S *1175:RESET_B 7.22772e-05
267 *1081:A *1175:RESET_B 9.99853e-05
268 *1085:A *256:628 0
269 *1086:S *256:628 0
270 *1086:S *256:638 0
271 *1087:A *256:654 0
272 *1092:S *1139:RESET_B 0.000296086
273 *1092:S *1179:RESET_B 4.41902e-05
274 *1092:S *256:393 2.29097e-05
275 *1096:A *1181:RESET_B 2.85234e-05
276 *1117:A *256:292 0
277 *1120:A *1190:RESET_B 0.000169856
278 *1120:A *256:165 7.71642e-05
279 *1120:A *256:471 0.000124012
280 *1121:A *1181:RESET_B 5.23735e-05
281 *1125:A *1157:RESET_B 0.000177556
282 *1125:A *256:77 6.14514e-05
283 *1129:B *1194:RESET_B 0
284 *1131:CLK *1132:RESET_B 8.94203e-05
285 *1131:CLK *256:26 0.000117966
286 *1131:D *256:26 6.2055e-05
287 *1131:D *256:36 4.06782e-05
288 *1134:D *256:771 2.85234e-05
289 *1135:CLK *256:753 8.71056e-05
290 *1135:D *1134:RESET_B 6.8255e-05
291 *1135:D *1173:RESET_B 9.15842e-06
292 *1139:CLK *1139:RESET_B 8.79458e-05
293 *1139:CLK *1170:RESET_B 0.000155645
294 *1142:D *1142:RESET_B 5.33005e-05
295 *1142:D *1191:RESET_B 3.14003e-05
296 *1142:D *256:720 0.000267625
297 *1143:CLK *1143:RESET_B 3.06123e-05
298 *1146:D *256:377 7.74135e-05
299 *1148:D *1182:RESET_B 0
300 *1156:D *1156:RESET_B 0.000178976
301 *1157:CLK *1194:RESET_B 0
302 *1158:CLK *1158:RESET_B 0.000543968
303 *1158:D *1158:RESET_B 0.000123075
304 *1159:CLK *1159:RESET_B 2.38501e-05
305 *1159:D *1159:RESET_B 5.49995e-05
306 *1160:D *256:179 0.000228566
307 *1165:CLK *256:169 2.28598e-05
308 *1167:CLK *256:286 0.000133788
309 *1168:CLK *1168:RESET_B 0
310 *1170:D *1170:RESET_B 5.66971e-05
311 *1174:D *256:599 0
312 *1176:D *256:618 0.000100248
313 *1176:D *256:628 0.000162721
314 *1179:CLK *1179:RESET_B 0.000146956
315 *1179:D *1179:RESET_B 3.41649e-05
316 *1181:CLK *1181:RESET_B 3.45026e-05
317 *1181:D *1181:RESET_B 7.15503e-05
318 *1189:CLK *256:330 0
319 *1189:D *1189:RESET_B 0.000100625
320 *1197:A *256:461 0
321 *1276:A *1181:RESET_B 0.000143808
322 *30:113 *1174:RESET_B 1.58884e-05
323 *30:113 *256:599 0.000196331
324 *30:113 *256:611 0.000368294
325 *30:113 *256:618 0.000126272
326 *30:113 *256:628 5.51716e-05
327 *93:12 *256:189 0
328 *93:18 *256:189 2.14378e-05
329 *93:66 *1150:RESET_B 0
330 *93:66 *256:189 8.07879e-05
331 *93:66 *256:222 0.000732024
332 *93:81 *256:189 0.000103267
333 *93:100 *256:169 0.000357054
334 *93:141 *1194:RESET_B 2.85276e-05
335 *97:33 *1191:RESET_B 0.000148182
336 *98:38 *1190:RESET_B 7.96727e-05
337 *98:38 *256:471 0.00011632
338 *98:53 *1181:RESET_B 0.000126042
339 *99:22 *1135:RESET_B 4.70821e-05
340 *99:22 *1136:RESET_B 8.33813e-05
341 *99:22 *256:656 0.000470037
342 *99:22 *256:668 0.000156911
343 *99:51 *1161:RESET_B 9.59815e-05
344 *99:51 *256:10 0
345 *99:51 *256:589 0
346 *99:51 *256:599 0
347 *99:69 *1190:RESET_B 8.85317e-05
348 *102:54 *1188:RESET_B 6.87574e-05
349 *114:8 *256:696 0.000146994
350 *124:55 *256:471 0.000265205
351 *126:26 *1165:RESET_B 9.42323e-06
352 *126:26 *256:165 4.12169e-06
353 *126:26 *256:169 7.19785e-05
354 *126:32 *1168:RESET_B 0.000117189
355 *126:32 *256:171 5.59013e-05
356 *126:54 *256:292 0
357 *126:54 *256:461 7.69776e-06
358 *126:69 *1154:RESET_B 0
359 *126:69 *256:292 0.000223599
360 *126:69 *256:318 0.000143804
361 *126:69 *256:330 0.000380261
362 *126:69 *256:337 0.0002357
363 *126:69 *256:344 0.000330414
364 *126:144 *1163:RESET_B 6.35892e-05
365 *126:202 *1175:RESET_B 4.47779e-05
366 *126:242 *1173:RESET_B 0
367 *126:242 *256:682 1.05524e-05
368 *126:242 *256:688 0
369 *126:242 *256:753 0
370 *134:12 *1191:RESET_B 0.000196786
371 *134:12 *256:720 0.000116183
372 *145:10 *1156:RESET_B 0.000221287
373 *145:40 *1156:RESET_B 5.90911e-05
374 *145:40 *256:38 0.000166896
375 *145:40 *256:40 0.000375791
376 *145:55 *256:36 0
377 *145:55 *256:38 0
378 *162:23 *256:377 8.07792e-06
379 *162:25 *256:367 5.26184e-05
380 *162:25 *256:377 7.5206e-05
381 *162:27 *256:367 6.8646e-06
382 *169:8 *256:254 6.30388e-05
383 *173:16 *1143:RESET_B 1.5942e-05
384 *173:16 *256:189 0.000154762
385 *173:34 *1153:RESET_B 4.73514e-05
386 *173:34 *256:254 2.49484e-05
387 *173:34 *256:266 0.000171584
388 *184:32 *1158:RESET_B 0
389 *239:59 *1164:RESET_B 5.16759e-05
390 *240:25 *256:175 0
391 *240:25 *256:510 0.000269359
392 *240:31 *1159:RESET_B 2.85321e-05
393 *240:50 *1150:RESET_B 9.24868e-05
394 *240:73 *1145:RESET_B 4.7268e-05
395 *240:73 *256:179 2.22618e-05
396 *240:73 *256:189 8.50109e-06
397 *240:125 *256:171 0
398 *240:125 *256:175 0
399 *243:10 *1163:RESET_B 0
400 *243:31 *1164:RESET_B 8.907e-05
401 *243:66 *1163:RESET_B 0
402 *245:10 *256:344 0
403 *245:10 *256:354 0
404 *245:10 *256:367 0
405 *245:12 *1146:RESET_B 9.46929e-05
406 *245:40 *1179:RESET_B 7.57312e-05
407 *245:63 *1146:RESET_B 1.91419e-05
408 *246:23 *1191:RESET_B 6.55528e-06
409 *246:38 *1191:RESET_B 3.16245e-05
410 *246:46 *1191:RESET_B 0.000116169
411 *246:83 *1142:RESET_B 1.20907e-05
412 *247:8 *256:688 0
413 *247:8 *256:696 0
414 *247:12 *1183:RESET_B 2.29097e-05
415 *247:26 *256:688 0
416 *247:62 *1173:RESET_B 0.000350836
417 *247:97 *256:688 0
418 *247:97 *256:753 0
419 *247:103 *1185:RESET_B 2.48941e-05
420 *249:27 *256:189 0.000127589
421 *253:56 *1190:RESET_B 0
422 *253:72 *1194:RESET_B 0.000124749
*RES
1 *1259:X *256:8 14.7464 
2 *256:8 *256:10 2.25 
3 *256:10 *256:12 3.16071 
4 *256:12 *256:16 11 
5 *256:16 *256:26 7.39286 
6 *256:26 *1132:RESET_B 0.883929 
7 *256:26 *256:36 9.48214 
8 *256:36 *256:38 4.67857 
9 *256:38 *256:40 4.98214 
10 *256:40 *1156:RESET_B 10.2054 
11 *256:40 *1155:RESET_B 12.2946 
12 *1155:RESET_B *256:64 4.5 
13 *256:64 *1157:RESET_B 9.48214 
14 *256:64 *256:77 14.0714 
15 *256:77 *256:83 7.19643 
16 *256:83 *1130:RESET_B 4.5 
17 *256:83 *1194:RESET_B 10.9018 
18 *256:77 *1193:RESET_B 0.901786 
19 *256:38 *1192:RESET_B 4.5 
20 *256:36 *1133:RESET_B 10.7232 
21 *1133:RESET_B *1163:RESET_B 18.1071 
22 *1163:RESET_B *1164:RESET_B 24.6786 
23 *1164:RESET_B *256:165 9.0625 
24 *256:165 *256:169 11.1964 
25 *256:169 *256:171 3.46429 
26 *256:171 *256:175 5.83929 
27 *256:175 *256:177 6.69643 
28 *256:177 *256:179 5.05357 
29 *256:179 *256:189 13.8393 
30 *256:189 *1143:RESET_B 11.4375 
31 *256:189 *1144:RESET_B 4.5 
32 *256:179 *256:210 0.732143 
33 *256:210 *1145:RESET_B 1.29464 
34 *256:210 *256:222 18.5357 
35 *256:222 *1151:RESET_B 0.883929 
36 *256:222 *1150:RESET_B 16.1696 
37 *256:177 *1160:RESET_B 0.901786 
38 *256:177 *256:254 14.0357 
39 *256:254 *1153:RESET_B 5.38393 
40 *256:254 *256:266 6.73214 
41 *256:266 *1152:RESET_B 5.40179 
42 *256:266 *256:286 11.5179 
43 *256:286 *256:292 9.60714 
44 *256:292 *256:296 7.5 
45 *256:296 *1169:RESET_B 0.473214 
46 *256:296 *1154:RESET_B 17.9911 
47 *256:292 *256:318 1.94643 
48 *256:318 *1189:RESET_B 10.7411 
49 *256:318 *256:330 4.98214 
50 *256:330 *1147:RESET_B 4.5 
51 *256:330 *256:337 3.16071 
52 *256:337 *1171:RESET_B 4.5 
53 *256:337 *256:344 4.67857 
54 *256:344 *1148:RESET_B 11.5446 
55 *256:344 *256:354 2.25 
56 *256:354 *1172:RESET_B 4.5 
57 *1172:RESET_B *1188:RESET_B 9.85714 
58 *256:354 *256:367 4.67857 
59 *256:367 *1146:RESET_B 6.61607 
60 *256:367 *256:377 5.28571 
61 *256:377 *1138:RESET_B 4.5 
62 *256:377 *1137:RESET_B 9.48214 
63 *1137:RESET_B *256:393 0.901786 
64 *256:393 *1179:RESET_B 16.2054 
65 *1179:RESET_B *256:405 14.0357 
66 *256:405 *1182:RESET_B 19.9732 
67 *256:405 *1178:RESET_B 5.40179 
68 *256:393 *1139:RESET_B 7.1875 
69 *1139:RESET_B *1170:RESET_B 18.5804 
70 *256:286 *256:461 14.9754 
71 *256:461 *256:471 16.8839 
72 *256:471 *1190:RESET_B 8.45536 
73 *256:471 *1181:RESET_B 21.9911 
74 *256:461 *1167:RESET_B 4.77679 
75 *256:175 *256:510 10.4464 
76 *256:510 *256:512 4.98214 
77 *256:512 *1158:RESET_B 14.6696 
78 *256:512 *1149:RESET_B 4.5 
79 *256:510 *1159:RESET_B 9.65179 
80 *256:171 *1166:RESET_B 4.5 
81 *256:169 *1168:RESET_B 6.14286 
82 *256:165 *1165:RESET_B 0.473214 
83 *256:16 *1131:RESET_B 2.02679 
84 *256:12 *1162:RESET_B 5.79464 
85 *256:10 *1161:RESET_B 6.20536 
86 *256:8 *256:589 4.67857 
87 *256:589 *1174:RESET_B 4.97321 
88 *256:589 *256:599 3.46429 
89 *256:599 *1175:RESET_B 10.7411 
90 *256:599 *256:611 4.67857 
91 *256:611 *1176:RESET_B 4.5 
92 *256:611 *256:618 1.64286 
93 *256:618 *1141:RESET_B 5.38393 
94 *256:618 *256:628 8.01786 
95 *256:628 *1140:RESET_B 5.79464 
96 *256:628 *256:638 1.94643 
97 *256:638 *1177:RESET_B 6.20536 
98 *256:638 *256:654 8.625 
99 *256:654 *256:656 4.64286 
100 *256:656 *1135:RESET_B 0.473214 
101 *256:656 *256:668 9.57143 
102 *256:668 *1173:RESET_B 11.3125 
103 *1173:RESET_B *256:682 6.54464 
104 *256:682 *256:688 6.20536 
105 *256:688 *256:696 7.8125 
106 *256:696 *256:702 15.0625 
107 *256:702 *1186:RESET_B 9.48214 
108 *256:702 *1187:RESET_B 4.5 
109 *256:696 *256:720 9.11607 
110 *256:720 *1191:RESET_B 15.3036 
111 *256:720 *1142:RESET_B 6.34821 
112 *256:688 *1183:RESET_B 7.84821 
113 *256:682 *256:753 4.83036 
114 *256:753 *1185:RESET_B 8.66964 
115 *256:753 *256:771 16.9643 
116 *256:771 *1184:RESET_B 0.473214 
117 *256:771 *1180:RESET_B 11.6518 
118 *256:668 *1134:RESET_B 11.9911 
119 *256:654 *1136:RESET_B 18.1696 
*END

*D_NET *257 0.00122162
*CONN
*I *1209:A I *D sky130_fd_sc_hd__dlygate4sd3_1
*I *1269:A I *D sky130_fd_sc_hd__buf_2
*I *1176:Q O *D sky130_fd_sc_hd__dfrtp_1
*CAP
1 *1209:A 7.93303e-05
2 *1269:A 0.000180244
3 *1176:Q 0.000241251
4 *257:8 0.000500825
5 *1209:A *270:10 6.26942e-05
6 *1269:A *270:10 5.28838e-06
7 *1269:A *270:16 8.53043e-05
8 o_bucket[0] *1269:A 6.66856e-05
*RES
1 *1176:Q *257:8 16.3893 
2 *257:8 *1269:A 18.0321 
3 *257:8 *1209:A 15.4429 
*END

*D_NET *258 0.000476581
*CONN
*I *1216:A I *D sky130_fd_sc_hd__dlygate4sd3_1
*I *1270:A I *D sky130_fd_sc_hd__buf_2
*I *1177:Q O *D sky130_fd_sc_hd__dfrtp_1
*CAP
1 *1216:A 0.000122453
2 *1270:A 0
3 *1177:Q 0.000100538
4 *258:8 0.000222991
5 o_bucket[1] *258:8 3.05988e-05
*RES
1 *1177:Q *258:8 15.7464 
2 *258:8 *1270:A 13.8 
3 *258:8 *1216:A 16.05 
*END

*D_NET *259 0.00179314
*CONN
*I *984:B1 I *D sky130_fd_sc_hd__o211a_1
*I *987:A1 I *D sky130_fd_sc_hd__mux2_1
*I *1260:X O *D sky130_fd_sc_hd__buf_1
*CAP
1 *984:B1 0.000202405
2 *987:A1 7.50905e-05
3 *1260:X 0.000200455
4 *259:14 0.000477951
5 *984:B1 *987:A0 3.73361e-05
6 *987:A1 *987:A0 0.000107259
7 *259:14 *983:A 0.000223033
8 *259:14 *987:A0 0.000136871
9 *259:14 *314:14 2.89016e-05
10 *987:S *984:B1 0.000172173
11 *987:S *987:A1 0.000131668
*RES
1 *1260:X *259:14 23.3357 
2 *259:14 *987:A1 12.0321 
3 *259:14 *984:B1 22.6214 
*END

*D_NET *260 0.000800032
*CONN
*I *1210:A I *D sky130_fd_sc_hd__dlygate4sd3_1
*I *1271:A I *D sky130_fd_sc_hd__clkbuf_4
*I *1178:Q O *D sky130_fd_sc_hd__dfrtp_1
*CAP
1 *1210:A 0.00016459
2 *1271:A 0
3 *1178:Q 0.000160801
4 *260:12 0.000325391
5 o_bucket[2] *260:12 0
6 *256:405 *260:12 0.00014925
*RES
1 *1178:Q *260:12 21.1929 
2 *260:12 *1271:A 9.3 
3 *260:12 *1210:A 11.8893 
*END

*D_NET *261 0.000687422
*CONN
*I *1272:A I *D sky130_fd_sc_hd__buf_2
*I *1234:A I *D sky130_fd_sc_hd__dlygate4sd3_1
*I *1180:Q O *D sky130_fd_sc_hd__dfrtp_1
*CAP
1 *1272:A 0
2 *1234:A 3.47914e-05
3 *1180:Q 0.000138865
4 *261:12 0.000173657
5 *1234:A *314:14 0.000188586
6 *261:12 *314:14 4.18895e-05
7 o_index[0] *1234:A 8.07313e-05
8 o_index[0] *261:12 2.89016e-05
*RES
1 *1180:Q *261:12 20.7821 
2 *261:12 *1234:A 11.0679 
3 *261:12 *1272:A 9.3 
*END

*D_NET *262 0.00591858
*CONN
*I *1238:A I *D sky130_fd_sc_hd__dlygate4sd3_1
*I *1273:A I *D sky130_fd_sc_hd__clkbuf_4
*I *1181:Q O *D sky130_fd_sc_hd__dfrtp_1
*CAP
1 *1238:A 0.000173019
2 *1273:A 0.00149006
3 *1181:Q 0.000340152
4 *262:12 0.00200323
5 *1273:A *979:A0 0.000145594
6 *1273:A *1058:A1 3.34687e-05
7 *1273:A *325:97 0
8 *1273:A *326:130 0
9 *1273:A *353:10 0.000125731
10 *262:12 *931:A2 5.27092e-05
11 *931:A1 *1238:A 6.93626e-06
12 *931:B1 *262:12 0.00022367
13 *931:B2 *262:12 1.4006e-05
14 *932:C1 *262:12 5.49995e-05
15 *972:C1 *1273:A 0.000332958
16 *974:B1 *1273:A 0
17 *1125:A *1273:A 0.000356051
18 *1131:CLK *1273:A 0
19 *1132:D *1273:A 6.74911e-05
20 *1157:RESET_B *1273:A 0
21 *99:51 *1238:A 0.00014439
22 *99:51 *1273:A 0.00010403
23 *99:59 *1273:A 0.000101178
24 *126:144 *1273:A 0
25 *140:10 *1273:A 0
26 *242:86 *1273:A 0.000148901
27 *255:35 *1273:A 0
*RES
1 *1181:Q *262:12 19.4071 
2 *262:12 *1273:A 44.6393 
3 *262:12 *1238:A 16.8 
*END

*D_NET *263 0.000821283
*CONN
*I *1213:A I *D sky130_fd_sc_hd__dlygate4sd3_1
*I *1274:A I *D sky130_fd_sc_hd__clkbuf_4
*I *1182:Q O *D sky130_fd_sc_hd__dfrtp_1
*CAP
1 *1213:A 3.61282e-05
2 *1274:A 8.19203e-05
3 *1182:Q 0.000204953
4 *263:12 0.000323001
5 o_index[2] *1274:A 0
6 *1182:RESET_B *1274:A 0.000175281
*RES
1 *1182:Q *263:12 21.7107 
2 *263:12 *1274:A 20.55 
3 *263:12 *1213:A 9.83571 
*END

*D_NET *264 0.0002291
*CONN
*I *1275:A I *D sky130_fd_sc_hd__clkbuf_4
*I *1179:Q O *D sky130_fd_sc_hd__dfrtp_1
*CAP
1 *1275:A 0.00011455
2 *1179:Q 0.00011455
3 o_valid *1275:A 0
*RES
1 *1179:Q *1275:A 29.5464 
*END

*D_NET *265 0.00118551
*CONN
*I *961:A2 I *D sky130_fd_sc_hd__a31o_1
*I *1268:X O *D sky130_fd_sc_hd__clkbuf_1
*CAP
1 *961:A2 0.000286091
2 *1268:X 0.000286091
3 *961:A2 *1268:A 0.00012501
4 *961:A2 *266:16 7.4041e-05
5 *952:D *961:A2 0.000115759
6 *1090:B *961:A2 5.52302e-05
7 *1094:A1 *961:A2 5.52238e-05
8 *1094:B1 *961:A2 4.84159e-05
9 *1095:A1 *961:A2 9.85599e-06
10 *124:55 *961:A2 2.11336e-05
11 *124:63 *961:A2 1.25692e-05
12 *213:20 *961:A2 9.60875e-05
*RES
1 *1268:X *961:A2 33.9214 
*END

*D_NET *266 0.00157416
*CONN
*I *1090:A I *D sky130_fd_sc_hd__nand2_1
*I *1268:A I *D sky130_fd_sc_hd__clkbuf_1
*I *1276:X O *D sky130_fd_sc_hd__clkbuf_1
*CAP
1 *1090:A 0
2 *1268:A 0.00013495
3 *1276:X 0.000245139
4 *266:16 0.000380089
5 *961:A2 *1268:A 0.00012501
6 *961:A2 *266:16 7.4041e-05
7 *967:B1 *266:16 1.6806e-05
8 *1090:B *266:16 5.50052e-05
9 *1094:B1 *266:16 0
10 *1095:A1 *266:16 0.000223668
11 *1181:RESET_B *266:16 0.000141935
12 *105:10 *1268:A 5.71472e-05
13 *120:22 *266:16 0.000120368
*RES
1 *1276:X *266:16 23.9071 
2 *266:16 *1268:A 21.2107 
3 *266:16 *1090:A 9.3 
*END

*D_NET *267 0.000189561
*CONN
*I *1002:B1 I *D sky130_fd_sc_hd__a21o_1
*I *1204:X O *D sky130_fd_sc_hd__dlygate4sd3_1
*CAP
1 *1002:B1 5.46644e-05
2 *1204:X 5.46644e-05
3 *1002:B1 *314:22 8.02324e-05
*RES
1 *1204:X *1002:B1 19.9571 
*END

*D_NET *268 0.000774817
*CONN
*I *1047:B1 I *D sky130_fd_sc_hd__a21o_1
*I *1215:X O *D sky130_fd_sc_hd__dlygate4sd3_1
*CAP
1 *1047:B1 4.73582e-05
2 *1215:X 4.73582e-05
3 *1047:A2 *1047:B1 5.65955e-05
4 *250:14 *1047:B1 0.000262058
5 *255:35 *1047:B1 0.000361447
*RES
1 *1215:X *1047:B1 22.0107 
*END

*D_NET *269 0.00117768
*CONN
*I *1036:B1 I *D sky130_fd_sc_hd__a21o_1
*I *1226:X O *D sky130_fd_sc_hd__dlygate4sd3_1
*CAP
1 *1036:B1 0.000282118
2 *1226:X 0.000282118
3 *1036:A1 *1036:B1 1.55885e-05
4 *1036:A2 *1036:B1 7.59551e-05
5 *93:66 *1036:B1 1.02504e-05
6 *251:6 *1036:B1 0.000444906
7 *252:23 *1036:B1 6.67484e-05
*RES
1 *1226:X *1036:B1 34.6357 
*END

*D_NET *270 0.011326
*CONN
*I *985:B2 I *D sky130_fd_sc_hd__a22o_1
*I *989:A1 I *D sky130_fd_sc_hd__mux2_1
*I *984:A2 I *D sky130_fd_sc_hd__o211a_1
*I *1261:X O *D sky130_fd_sc_hd__buf_1
*CAP
1 *985:B2 0.000374745
2 *989:A1 0
3 *984:A2 0.00032948
4 *1261:X 0
5 *270:18 0.000761602
6 *270:16 0.00163314
7 *270:10 0.00326471
8 *270:6 0.00243844
9 *270:10 *1228:A 0
10 *270:18 *989:A0 0.00018077
11 *984:A1 *984:A2 5.66971e-05
12 *984:C1 *984:A2 3.49456e-06
13 *985:B1 *985:B2 0.00015244
14 *1087:A *270:18 3.18676e-05
15 *1136:RESET_B *985:B2 0.000364967
16 *1173:RESET_B *984:A2 0
17 *1177:CLK *270:18 6.19598e-05
18 *1177:D *270:18 4.56276e-05
19 *1177:RESET_B *270:16 0.000134174
20 *1177:RESET_B *270:18 5.33005e-05
21 *1209:A *270:10 6.26942e-05
22 *1257:A *270:10 0
23 *1259:A *270:10 9.09514e-05
24 *1269:A *270:10 5.28838e-06
25 *1269:A *270:16 8.53043e-05
26 *99:35 *270:16 0.000550462
27 *99:51 *270:10 0
28 *149:6 *985:B2 5.33005e-05
29 *154:21 *984:A2 0.000300674
30 *154:27 *984:A2 7.83659e-05
31 *256:638 *985:B2 3.17148e-05
32 *256:654 *985:B2 0.000179828
*RES
1 *1261:X *270:6 13.8 
2 *270:6 *270:10 45.2411 
3 *270:10 *270:16 21.4554 
4 *270:16 *270:18 5.875 
5 *270:18 *984:A2 25.0857 
6 *270:18 *989:A1 9.3 
7 *270:16 *985:B2 27.8179 
*END

*D_NET *271 0.000476175
*CONN
*I *991:B1 I *D sky130_fd_sc_hd__a21o_1
*I *1237:X O *D sky130_fd_sc_hd__dlygate4sd3_1
*CAP
1 *991:B1 6.7736e-05
2 *1237:X 6.7736e-05
3 *991:B1 *991:A2 0.00012356
4 *991:B1 *281:6 4.67911e-05
5 *991:B1 *314:14 0.000170351
*RES
1 *1237:X *991:B1 21.6 
*END

*D_NET *272 0.00102775
*CONN
*I *1019:B1 I *D sky130_fd_sc_hd__a21o_1
*I *1246:X O *D sky130_fd_sc_hd__dlygate4sd3_1
*CAP
1 *1019:B1 0.000406085
2 *1246:X 0.000406085
3 *1019:A2 *1019:B1 5.49656e-06
4 *1036:A1 *1019:B1 2.74835e-05
5 *1053:A *1019:B1 0.000182605
*RES
1 *1246:X *1019:B1 25.4571 
*END

*D_NET *273 0.000675152
*CONN
*I *1112:B1 I *D sky130_fd_sc_hd__o21ai_1
*I *1247:X O *D sky130_fd_sc_hd__dlygate4sd3_1
*CAP
1 *1112:B1 0.000187364
2 *1247:X 0.000187364
3 *134:12 *1112:B1 0.000274036
4 *256:702 *1112:B1 2.63877e-05
*RES
1 *1247:X *1112:B1 31.9571 
*END

*D_NET *274 0.000494393
*CONN
*I *1114:B1 I *D sky130_fd_sc_hd__o21ai_1
*I *1248:X O *D sky130_fd_sc_hd__dlygate4sd3_1
*CAP
1 *1114:B1 0.000118799
2 *1248:X 0.000118799
3 *1114:B1 *936:B_N 0.000143633
4 *1115:B *1114:B1 3.36464e-05
5 *127:28 *1114:B1 7.95164e-05
*RES
1 *1248:X *1114:B1 30.725 
*END

*D_NET *275 0.00147015
*CONN
*I *1068:A1 I *D sky130_fd_sc_hd__mux2_1
*I *1039:A0 I *D sky130_fd_sc_hd__mux2_1
*I *1249:X O *D sky130_fd_sc_hd__dlygate4sd3_1
*CAP
1 *1068:A1 0
2 *1039:A0 0.000153763
3 *1249:X 0.000235439
4 *275:14 0.000389202
5 *1039:A0 *1022:A1 5.66971e-05
6 *1039:A0 *325:54 0.000225446
7 *275:14 *1068:A0 0.000314907
8 *275:14 *1069:A 3.9733e-05
9 *1068:S *1039:A0 3.11088e-05
10 *1068:S *275:14 2.38501e-05
*RES
1 *1249:X *275:14 23.175 
2 *275:14 *1039:A0 12.7107 
3 *275:14 *1068:A1 9.3 
*END

*D_NET *276 0.000469521
*CONN
*I *1069:A I *D sky130_fd_sc_hd__clkbuf_1
*I *1250:X O *D sky130_fd_sc_hd__dlygate4sd3_1
*CAP
1 *1069:A 0.000142508
2 *1250:X 0.000142508
3 *1069:A *1249:A 0.000144773
4 *275:14 *1069:A 3.9733e-05
*RES
1 *1250:X *1069:A 30.725 
*END

*D_NET *277 0.00157943
*CONN
*I *1070:A1 I *D sky130_fd_sc_hd__mux2_1
*I *1041:A0 I *D sky130_fd_sc_hd__mux2_1
*I *1205:X O *D sky130_fd_sc_hd__dlygate4sd3_1
*CAP
1 *1070:A1 0.000224308
2 *1041:A0 0.000290871
3 *1205:X 0
4 *277:4 0.000515179
5 *1041:A0 *1041:A1 0.000212277
6 *1070:A1 *1022:A1 2.56601e-05
7 *1070:S *1070:A1 3.14078e-05
8 *1154:RESET_B *1070:A1 0.000139913
9 *1167:CLK *1041:A0 3.67779e-05
10 *256:286 *1041:A0 0.000103039
11 *256:292 *1041:A0 0
12 *256:292 *1070:A1 0
*RES
1 *1205:X *277:4 9.3 
2 *277:4 *1041:A0 14.7821 
3 *277:4 *1070:A1 21.5143 
*END

*D_NET *278 0.00218882
*CONN
*I *1066:A1 I *D sky130_fd_sc_hd__mux2_1
*I *1037:A0 I *D sky130_fd_sc_hd__mux2_1
*I *1206:X O *D sky130_fd_sc_hd__dlygate4sd3_1
*CAP
1 *1066:A1 0.000257752
2 *1037:A0 6.47742e-05
3 *1206:X 0.000491911
4 *278:8 0.000814438
5 *278:8 *1206:A 2.11336e-05
6 *1066:S *1066:A1 5.66971e-05
7 *1067:A *278:8 5.4959e-05
8 *1167:CLK *1066:A1 0.000140524
9 *256:286 *1066:A1 6.75704e-05
10 *256:461 *1066:A1 0.000219064
*RES
1 *1206:X *278:8 19.675 
2 *278:8 *1037:A0 14.8357 
3 *278:8 *1066:A1 20.3893 
*END

*D_NET *279 0.00112721
*CONN
*I *1076:A1 I *D sky130_fd_sc_hd__mux2_1
*I *1024:A0 I *D sky130_fd_sc_hd__mux2_1
*I *1207:X O *D sky130_fd_sc_hd__dlygate4sd3_1
*CAP
1 *1076:A1 0
2 *1024:A0 0.000202849
3 *1207:X 5.26207e-05
4 *279:6 0.00025547
5 *1024:A0 *1076:A0 0.000153047
6 *1024:A0 *1207:A 5.71472e-05
7 *1024:A0 *303:30 0.000124333
8 *1076:S *279:6 9.80173e-05
9 *1088:A1 *279:6 0.000183726
*RES
1 *1207:X *279:6 11.0679 
2 *279:6 *1024:A0 23.2107 
3 *279:6 *1076:A1 9.3 
*END

*D_NET *280 0.000913257
*CONN
*I *1077:A I *D sky130_fd_sc_hd__clkbuf_1
*I *1208:X O *D sky130_fd_sc_hd__dlygate4sd3_1
*CAP
1 *1077:A 0.000366185
2 *1208:X 0.000366185
3 *1077:A *319:10 0
4 *1172:CLK *1077:A 5.52238e-05
5 *1178:CLK *1077:A 4.73164e-05
6 *30:34 *1077:A 0
7 *30:47 *1077:A 7.83462e-05
*RES
1 *1208:X *1077:A 33.8679 
*END

*D_NET *281 0.00330506
*CONN
*I *985:A2 I *D sky130_fd_sc_hd__a22o_1
*I *986:A2 I *D sky130_fd_sc_hd__o221a_2
*I *991:A2 I *D sky130_fd_sc_hd__a21o_1
*I *1262:X O *D sky130_fd_sc_hd__buf_1
*CAP
1 *985:A2 2.89807e-05
2 *986:A2 0.000309657
3 *991:A2 0.000275425
4 *1262:X 0.000343925
5 *281:29 0.000714597
6 *281:6 0.00099531
7 *991:A2 *314:14 1.6102e-05
8 *281:6 *314:14 0.000104331
9 *281:29 *981:A 0
10 *281:29 *1237:A 0
11 *985:B1 *281:29 3.27461e-05
12 *986:A1 *985:A2 5.49489e-05
13 *986:A1 *986:A2 3.36527e-05
14 *986:B2 *986:A2 0.000115351
15 *986:C1 *281:29 0
16 *987:S *986:A2 3.49456e-06
17 *991:B1 *991:A2 0.00012356
18 *991:B1 *281:6 4.67911e-05
19 *1136:D *281:29 0
20 *1136:RESET_B *281:29 4.97054e-05
21 *93:265 *991:A2 5.64774e-05
*RES
1 *1262:X *281:6 13.9429 
2 *281:6 *991:A2 13.6929 
3 *281:6 *281:29 15.5536 
4 *281:29 *986:A2 14.425 
5 *281:29 *985:A2 10.2643 
*END

*D_NET *282 0.000641777
*CONN
*I *1084:A0 I *D sky130_fd_sc_hd__mux2_1
*I *1209:X O *D sky130_fd_sc_hd__dlygate4sd3_1
*CAP
1 *1084:A0 0.000227416
2 *1209:X 0.000227416
3 *940:B *1084:A0 5.2254e-05
4 *99:35 *1084:A0 0.000134692
*RES
1 *1209:X *1084:A0 32.0107 
*END

*D_NET *283 0.000586807
*CONN
*I *1088:A0 I *D sky130_fd_sc_hd__mux2_1
*I *1210:X O *D sky130_fd_sc_hd__dlygate4sd3_1
*CAP
1 *1088:A0 0.000196698
2 *1210:X 0.000196698
3 *1088:A0 *319:10 9.01525e-05
4 *1178:D *1088:A0 0.00010326
5 *30:47 *1088:A0 0
*RES
1 *1210:X *1088:A0 31.6 
*END

*D_NET *284 0.00170172
*CONN
*I *1072:A1 I *D sky130_fd_sc_hd__mux2_1
*I *1020:A0 I *D sky130_fd_sc_hd__mux2_1
*I *1211:X O *D sky130_fd_sc_hd__dlygate4sd3_1
*CAP
1 *1072:A1 0.000123212
2 *1020:A0 0.000372763
3 *1211:X 0
4 *284:4 0.000495975
5 *1088:A1 *1020:A0 0.00014285
6 *93:219 *1072:A1 3.6337e-05
7 *102:30 *1020:A0 0.00044468
8 *102:30 *1072:A1 8.59075e-05
*RES
1 *1211:X *284:4 9.3 
2 *284:4 *1020:A0 14.7643 
3 *284:4 *1072:A1 20.2821 
*END

*D_NET *285 0.000851745
*CONN
*I *1070:A0 I *D sky130_fd_sc_hd__mux2_1
*I *1212:X O *D sky130_fd_sc_hd__dlygate4sd3_1
*CAP
1 *1070:A0 0.00024247
2 *1212:X 0.00024247
3 *1070:A0 *303:24 1.32019e-05
4 *1070:S *1070:A0 0.00018372
5 *1154:RESET_B *1070:A0 0.000141975
6 *126:69 *1070:A0 2.79092e-05
*RES
1 *1212:X *1070:A0 32.9214 
*END

*D_NET *286 0.000443795
*CONN
*I *1097:A0 I *D sky130_fd_sc_hd__mux2_1
*I *1213:X O *D sky130_fd_sc_hd__dlygate4sd3_1
*CAP
1 *1097:A0 0.000152795
2 *1213:X 0.000152795
3 *1097:A0 *319:10 0.000138205
*RES
1 *1213:X *1097:A0 31.0643 
*END

*D_NET *287 0.00124893
*CONN
*I *1062:A1 I *D sky130_fd_sc_hd__mux2_1
*I *1050:A0 I *D sky130_fd_sc_hd__mux2_1
*I *1214:X O *D sky130_fd_sc_hd__dlygate4sd3_1
*CAP
1 *1062:A1 0.000272574
2 *1050:A0 0.000167654
3 *1214:X 0
4 *287:4 0.000440228
5 *1050:A0 *1050:A1 9.82112e-05
6 *1062:A1 *1050:A1 2.37871e-05
7 *1062:A1 *1062:A0 5.49489e-05
8 *1062:A1 *1214:A 3.75959e-05
9 *93:122 *1062:A1 0.000125528
10 *126:22 *1062:A1 2.84026e-05
*RES
1 *1214:X *287:4 9.3 
2 *287:4 *1050:A0 11.4786 
3 *287:4 *1062:A1 24.05 
*END

*D_NET *288 0.00057353
*CONN
*I *1086:A0 I *D sky130_fd_sc_hd__mux2_1
*I *1216:X O *D sky130_fd_sc_hd__dlygate4sd3_1
*CAP
1 *1086:A0 0.000220248
2 *1216:X 0.000220248
3 *99:22 *1086:A0 3.08664e-05
4 *99:35 *1086:A0 0.000102168
*RES
1 *1216:X *1086:A0 30.8143 
*END

*D_NET *289 0.00174284
*CONN
*I *1056:A1 I *D sky130_fd_sc_hd__mux2_1
*I *977:A0 I *D sky130_fd_sc_hd__mux2_1
*I *1217:X O *D sky130_fd_sc_hd__dlygate4sd3_1
*CAP
1 *1056:A1 0.000115444
2 *977:A0 0.000224351
3 *1217:X 0
4 *289:6 0.000339794
5 *977:A0 *977:A1 3.18676e-05
6 *977:A0 *1005:A1 8.41296e-05
7 *977:A0 *324:120 9.28727e-05
8 *1056:A1 *1005:A1 4.31723e-05
9 *1056:A1 *1056:A0 0.000226274
10 *1056:A1 *324:120 4.6845e-05
11 *1054:S *1056:A1 0.000182806
12 *1131:D *977:A0 0.000177948
13 *126:161 *1056:A1 5.66971e-05
14 *256:36 *977:A0 0.000120636
*RES
1 *1217:X *289:6 13.8 
2 *289:6 *977:A0 20.2286 
3 *289:6 *1056:A1 17.925 
*END

*D_NET *290 0.0011872
*CONN
*I *1056:A0 I *D sky130_fd_sc_hd__mux2_1
*I *1218:X O *D sky130_fd_sc_hd__dlygate4sd3_1
*CAP
1 *1056:A0 0.000213517
2 *1218:X 0.000213517
3 *1056:A0 *1054:A0 0.00022867
4 *1056:A0 *1054:A1 0.000141858
5 *1054:S *1056:A0 8.2817e-05
6 *1055:A *1056:A0 5.66971e-05
7 *1056:A1 *1056:A0 0.000226274
8 *126:161 *1056:A0 2.38501e-05
*RES
1 *1218:X *1056:A0 24.475 
*END

*D_NET *291 0.00190821
*CONN
*I *1064:A1 I *D sky130_fd_sc_hd__mux2_1
*I *1052:A0 I *D sky130_fd_sc_hd__mux2_1
*I *1219:X O *D sky130_fd_sc_hd__dlygate4sd3_1
*CAP
1 *1064:A1 0.000298486
2 *1052:A0 0.000141506
3 *1219:X 0.000122604
4 *291:6 0.000562596
5 *1052:A0 *1219:A 3.20025e-05
6 *1052:A0 *326:36 0.000450146
7 *1064:A1 *1219:A 3.9733e-05
8 *291:6 *326:36 8.69164e-05
9 *1065:A *1064:A1 0
10 *126:32 *1064:A1 1.02504e-05
11 *256:171 *1064:A1 0.000114594
12 *256:175 *1064:A1 4.93722e-05
*RES
1 *1219:X *291:6 11.0679 
2 *291:6 *1052:A0 13.7464 
3 *291:6 *1064:A1 24.8 
*END

*D_NET *292 0.00109512
*CONN
*I *995:B1 I *D sky130_fd_sc_hd__o211a_1
*I *998:A1 I *D sky130_fd_sc_hd__mux2_1
*I *1263:X O *D sky130_fd_sc_hd__clkbuf_1
*CAP
1 *995:B1 6.23894e-05
2 *998:A1 3.68478e-05
3 *1263:X 0.000203697
4 *292:10 0.000302935
5 *995:B1 *995:A2 3.50746e-05
6 *995:B1 *998:A0 1.12713e-05
7 *995:B1 *303:47 1.24368e-05
8 *998:A1 *998:A0 0.000141935
9 *292:10 *998:A0 8.83681e-05
10 *995:C1 *995:B1 9.54974e-05
11 *998:S *995:B1 4.47241e-05
12 *998:S *998:A1 1.62025e-05
13 *162:6 *995:B1 4.37451e-05
14 *245:40 *292:10 0
*RES
1 *1263:X *292:10 22.0679 
2 *292:10 *998:A1 10.6571 
3 *292:10 *995:B1 11.8179 
*END

*D_NET *293 0.00211609
*CONN
*I *1058:A1 I *D sky130_fd_sc_hd__mux2_1
*I *979:A0 I *D sky130_fd_sc_hd__mux2_1
*I *1220:X O *D sky130_fd_sc_hd__dlygate4sd3_1
*CAP
1 *1058:A1 0.000333598
2 *979:A0 0.000238957
3 *1220:X 0
4 *293:6 0.000572556
5 *979:A0 *325:97 0
6 *979:A0 *326:115 5.52302e-05
7 *979:A0 *326:130 4.38128e-05
8 *1058:A1 *1058:A0 0.0001827
9 *1058:A1 *1224:A 0.000114655
10 *1058:A1 *325:97 0
11 *979:S *979:A0 0.000227532
12 *1273:A *979:A0 0.000145594
13 *1273:A *1058:A1 3.34687e-05
14 *242:86 *979:A0 0.000167988
*RES
1 *1220:X *293:6 13.8 
2 *293:6 *979:A0 20.675 
3 *293:6 *1058:A1 18.6571 
*END

*D_NET *294 0.00180085
*CONN
*I *1082:A1 I *D sky130_fd_sc_hd__mux2_1
*I *1007:A0 I *D sky130_fd_sc_hd__mux2_1
*I *1221:X O *D sky130_fd_sc_hd__dlygate4sd3_1
*CAP
1 *1082:A1 0
2 *1007:A0 0.000146414
3 *1221:X 0.000162172
4 *294:14 0.000308586
5 *1007:A0 *326:130 5.66971e-05
6 *294:14 *324:120 2.14001e-05
7 *1006:A *294:14 3.39217e-05
8 *1007:S *1007:A0 0.000268842
9 *1082:S *294:14 3.29297e-05
10 *1141:D *294:14 9.17004e-05
11 *1176:CLK *294:14 2.59355e-05
12 *113:8 *1007:A0 0.000568822
13 *113:8 *294:14 8.34321e-05
*RES
1 *1221:X *294:14 21.7286 
2 *294:14 *1007:A0 14.7643 
3 *294:14 *1082:A1 9.3 
*END

*D_NET *295 0.00199749
*CONN
*I *1062:A0 I *D sky130_fd_sc_hd__mux2_1
*I *1222:X O *D sky130_fd_sc_hd__dlygate4sd3_1
*CAP
1 *1062:A0 0.00055231
2 *1222:X 0.00055231
3 *1062:A0 *1222:A 0.000112995
4 *1062:A0 *325:54 0.000206285
5 *1062:A0 *368:8 7.83587e-05
6 *1062:A1 *1062:A0 5.49489e-05
7 *1120:A *1062:A0 0.00020042
8 *93:122 *1062:A0 0.000175854
9 *126:14 *1062:A0 3.32737e-05
10 *126:22 *1062:A0 3.07334e-05
11 *253:56 *1062:A0 0
*RES
1 *1222:X *1062:A0 38.2607 
*END

*D_NET *296 0.00241156
*CONN
*I *1074:A1 I *D sky130_fd_sc_hd__mux2_1
*I *1022:A0 I *D sky130_fd_sc_hd__mux2_1
*I *1223:X O *D sky130_fd_sc_hd__dlygate4sd3_1
*CAP
1 *1074:A1 9.65452e-05
2 *1022:A0 0.000407929
3 *1223:X 0.000291771
4 *296:10 0.000796244
5 *296:10 *1223:A 3.11088e-05
6 *1200:A *1022:A0 0.00022871
7 *245:10 *1074:A1 4.64627e-05
8 *256:337 *296:10 0.000172285
9 *256:344 *1074:A1 0.000238595
10 *256:344 *296:10 0.000101908
*RES
1 *1223:X *296:10 19.0321 
2 *296:10 *1022:A0 18.8536 
3 *296:10 *1074:A1 16.9607 
*END

*D_NET *297 0.000519568
*CONN
*I *1058:A0 I *D sky130_fd_sc_hd__mux2_1
*I *1224:X O *D sky130_fd_sc_hd__dlygate4sd3_1
*CAP
1 *1058:A0 5.51772e-05
2 *1224:X 5.51772e-05
3 *1058:A0 *1224:A 0.000226513
4 *1058:A1 *1058:A0 0.0001827
*RES
1 *1224:X *1058:A0 20.7786 
*END

*D_NET *298 0.00167204
*CONN
*I *1064:A0 I *D sky130_fd_sc_hd__mux2_1
*I *1225:X O *D sky130_fd_sc_hd__dlygate4sd3_1
*CAP
1 *1064:A0 0.000499219
2 *1225:X 0.000499219
3 *1064:A0 *369:8 7.83659e-05
4 *93:100 *1064:A0 6.71657e-05
5 *256:169 *1064:A0 0.000528067
*RES
1 *1225:X *1064:A0 34.9214 
*END

*D_NET *299 0.00171185
*CONN
*I *1005:A0 I *D sky130_fd_sc_hd__mux2_1
*I *1080:A1 I *D sky130_fd_sc_hd__mux2_1
*I *1227:X O *D sky130_fd_sc_hd__dlygate4sd3_1
*CAP
1 *1005:A0 0.000238769
2 *1080:A1 0.0004592
3 *1227:X 0
4 *299:4 0.000697968
5 *1080:A1 *324:120 0
6 *1006:A *1080:A1 0.000200841
7 *1081:A *1080:A1 5.83768e-05
8 *1175:RESET_B *1080:A1 5.66971e-05
9 *1176:D *1080:A1 0
10 *256:628 *1080:A1 0
*RES
1 *1227:X *299:4 9.3 
2 *299:4 *1080:A1 27.7643 
3 *299:4 *1005:A0 13.1393 
*END

*D_NET *300 0.00184503
*CONN
*I *975:A0 I *D sky130_fd_sc_hd__mux2_1
*I *1054:A1 I *D sky130_fd_sc_hd__mux2_1
*I *1228:X O *D sky130_fd_sc_hd__dlygate4sd3_1
*CAP
1 *975:A0 0
2 *1054:A1 0.000478632
3 *1228:X 0.00014733
4 *300:6 0.000625963
5 *1054:A1 *975:A1 5.65955e-05
6 *1054:A1 *1217:A 0.000126416
7 *1054:A1 *324:120 1.32056e-05
8 *300:6 *975:A1 4.33899e-05
9 *975:S *1054:A1 5.49544e-05
10 *975:S *300:6 9.99853e-05
11 *1054:S *1054:A1 5.66971e-05
12 *1056:A0 *1054:A1 0.000141858
*RES
1 *1228:X *300:6 12.3 
2 *300:6 *1054:A1 27.9071 
3 *300:6 *975:A0 9.3 
*END

*D_NET *301 0.00258067
*CONN
*I *1060:A1 I *D sky130_fd_sc_hd__mux2_1
*I *1048:A0 I *D sky130_fd_sc_hd__mux2_1
*I *1229:X O *D sky130_fd_sc_hd__dlygate4sd3_1
*CAP
1 *1060:A1 0.000418885
2 *1048:A0 0.000405908
3 *1229:X 0
4 *301:4 0.000824793
5 *1048:A0 *920:C 5.84279e-05
6 *1048:A0 *1048:A1 0.000112982
7 *1048:A0 *1229:A 0
8 *1048:A0 *324:34 8.53251e-05
9 *1048:A0 *326:36 9.65127e-05
10 *1060:A1 *1229:A 6.05161e-06
11 *1060:A1 *324:26 4.28167e-05
12 *1060:S *1060:A1 7.79937e-05
13 *1127:A *1048:A0 1.75408e-05
14 *1127:B *1048:A0 6.14702e-06
15 *1127:B *1060:A1 0.000215246
16 *1193:D *1048:A0 9.71197e-05
17 *1199:A *1060:A1 0
18 *93:133 *1060:A1 6.23278e-05
19 *253:72 *1060:A1 5.25941e-05
*RES
1 *1229:X *301:4 9.3 
2 *301:4 *1048:A0 26.55 
3 *301:4 *1060:A1 26.5679 
*END

*D_NET *302 0.00177689
*CONN
*I *1078:A1 I *D sky130_fd_sc_hd__mux2_1
*I *1003:A0 I *D sky130_fd_sc_hd__mux2_1
*I *1230:X O *D sky130_fd_sc_hd__dlygate4sd3_1
*CAP
1 *1078:A1 0.000466069
2 *1003:A0 0
3 *1230:X 0.000179979
4 *302:6 0.000646048
5 *1078:A1 *941:A 0
6 *1003:S *1078:A1 3.99614e-06
7 *1003:S *302:6 2.44318e-05
8 *1004:A *1078:A1 0.000185643
9 *1140:D *1078:A1 6.87574e-05
10 *126:228 *1078:A1 0
11 *126:242 *1078:A1 1.02504e-05
12 *154:33 *1078:A1 0.000142856
13 *154:33 *302:6 4.88637e-05
*RES
1 *1230:X *302:6 12.7107 
2 *302:6 *1003:A0 9.3 
3 *302:6 *1078:A1 27.8 
*END

*D_NET *303 0.00925809
*CONN
*I *996:B2 I *D sky130_fd_sc_hd__a22o_1
*I *995:A2 I *D sky130_fd_sc_hd__o211a_1
*I *1000:A1 I *D sky130_fd_sc_hd__mux2_1
*I *1264:X O *D sky130_fd_sc_hd__buf_1
*CAP
1 *996:B2 0.000499287
2 *995:A2 2.12778e-05
3 *1000:A1 0
4 *1264:X 0.00142016
5 *303:47 0.000761603
6 *303:30 0.00095104
7 *303:24 0.00213016
8 *996:B2 *993:A 2.72055e-05
9 *996:B2 *994:A 4.44164e-05
10 *996:B2 *998:A0 0
11 *996:B2 *1239:A 0.000118166
12 *303:24 *1024:A1 0.00078807
13 *303:30 *1000:A0 1.35553e-05
14 *303:30 *1022:A1 4.77263e-05
15 *303:30 *1024:A1 0
16 *303:47 *1000:A0 9.61187e-05
17 *995:A1 *995:A2 3.50746e-05
18 *995:A1 *996:B2 9.84673e-05
19 *995:B1 *995:A2 3.50746e-05
20 *995:B1 *303:47 1.24368e-05
21 *995:C1 *996:B2 3.64584e-05
22 *995:C1 *303:47 1.21258e-05
23 *996:A1 *996:B2 0.000186669
24 *1022:S *303:30 6.23268e-05
25 *1024:A0 *303:30 0.000124333
26 *1070:A0 *303:24 1.32019e-05
27 *1071:A *303:24 0.000143375
28 *1137:RESET_B *996:B2 6.88118e-05
29 *1137:RESET_B *303:47 0.000163063
30 *1154:CLK *303:24 0.000268682
31 *1154:RESET_B *303:24 0.000141736
32 *1200:A *303:30 3.99088e-05
33 *1208:A *303:30 4.57445e-05
34 *162:6 *996:B2 0.000129504
35 *162:6 *303:47 5.33005e-05
36 *162:23 *303:47 0.0001608
37 *162:25 *303:30 0.000123014
38 *162:27 *303:30 0.000143043
39 *244:44 *303:24 6.91442e-05
40 *245:25 *303:30 0
41 *256:377 *303:47 0.000173021
*RES
1 *1264:X *303:24 44.0892 
2 *303:24 *303:30 21.0982 
3 *303:30 *1000:A1 9.3 
4 *303:30 *303:47 16.1071 
5 *303:47 *995:A2 10.0321 
6 *303:47 *996:B2 29.7286 
*END

*D_NET *304 0.000408455
*CONN
*I *1078:A0 I *D sky130_fd_sc_hd__mux2_1
*I *1231:X O *D sky130_fd_sc_hd__dlygate4sd3_1
*CAP
1 *1078:A0 9.75586e-05
2 *1231:X 9.75586e-05
3 *1078:A0 *1231:A 5.71472e-05
4 *126:228 *1078:A0 0.00010096
5 *126:242 *1078:A0 5.52302e-05
*RES
1 *1231:X *1078:A0 20.7786 
*END

*D_NET *305 0.000498004
*CONN
*I *1080:A0 I *D sky130_fd_sc_hd__mux2_1
*I *1232:X O *D sky130_fd_sc_hd__dlygate4sd3_1
*CAP
1 *1080:A0 0.000112988
2 *1232:X 0.000112988
3 *1175:RESET_B *1080:A0 0.000272028
*RES
1 *1232:X *1080:A0 21.1893 
*END

*D_NET *306 0.000517651
*CONN
*I *1125:B I *D sky130_fd_sc_hd__xor2_1
*I *1233:X O *D sky130_fd_sc_hd__dlygate4sd3_1
*CAP
1 *1125:B 0.000190413
2 *1233:X 0.000190413
3 *1125:B *326:115 4.0698e-05
4 *126:144 *1125:B 9.61273e-05
*RES
1 *1233:X *1125:B 31.4214 
*END

*D_NET *307 0.00161352
*CONN
*I *1092:A0 I *D sky130_fd_sc_hd__mux2_1
*I *1234:X O *D sky130_fd_sc_hd__dlygate4sd3_1
*CAP
1 *1092:A0 0.000435266
2 *1234:X 0.000435266
3 *1092:A0 *314:14 1.69961e-05
4 *1092:A0 *314:22 9.60939e-05
5 *1139:D *1092:A0 2.56694e-05
6 *93:232 *1092:A0 0.000152764
7 *93:265 *1092:A0 0.000451463
8 *253:20 *1092:A0 0
*RES
1 *1234:X *1092:A0 35.0107 
*END

*D_NET *308 0.00154854
*CONN
*I *1015:A0 I *D sky130_fd_sc_hd__mux2_1
*I *1235:X O *D sky130_fd_sc_hd__dlygate4sd3_1
*CAP
1 *1015:A0 0.000436315
2 *1235:X 0.000436315
3 *1015:A0 *1011:A 4.88537e-05
4 *1015:A0 *1235:A 0.000141734
5 *1018:A *1015:A0 1.82657e-05
6 *1040:A *1015:A0 0.000141734
7 *1153:CLK *1015:A0 0.000313198
8 *173:23 *1015:A0 1.21258e-05
*RES
1 *1235:X *1015:A0 34.8321 
*END

*D_NET *309 0.000832694
*CONN
*I *1043:A0 I *D sky130_fd_sc_hd__mux2_1
*I *1236:X O *D sky130_fd_sc_hd__dlygate4sd3_1
*CAP
1 *1043:A0 0.000309632
2 *1236:X 0.000309632
3 *1043:A0 *326:115 3.9733e-05
4 *1043:A0 *351:6 2.59355e-05
5 *1043:S *1043:A0 2.04681e-05
6 *1155:RESET_B *1043:A0 1.48114e-05
7 *1157:RESET_B *1043:A0 7.74068e-05
8 *253:72 *1043:A0 3.50746e-05
*RES
1 *1236:X *1043:A0 32.2607 
*END

*D_NET *310 0.000315589
*CONN
*I *1095:A0 I *D sky130_fd_sc_hd__mux2_1
*I *1238:X O *D sky130_fd_sc_hd__dlygate4sd3_1
*CAP
1 *1095:A0 0.000114887
2 *1238:X 0.000114887
3 *1095:A1 *1095:A0 3.08664e-05
4 *1095:S *1095:A0 5.49489e-05
*RES
1 *1238:X *1095:A0 20.7786 
*END

*D_NET *311 0.00128538
*CONN
*I *998:A0 I *D sky130_fd_sc_hd__mux2_1
*I *1239:X O *D sky130_fd_sc_hd__dlygate4sd3_1
*CAP
1 *998:A0 0.000410574
2 *1239:X 0.000410574
3 *995:B1 *998:A0 1.12713e-05
4 *995:C1 *998:A0 0.000100165
5 *996:B2 *998:A0 0
6 *998:A1 *998:A0 0.000141935
7 *1137:RESET_B *998:A0 0.00012249
8 *292:10 *998:A0 8.83681e-05
*RES
1 *1239:X *998:A0 34.0643 
*END

*D_NET *312 0.00111908
*CONN
*I *987:A0 I *D sky130_fd_sc_hd__mux2_1
*I *1240:X O *D sky130_fd_sc_hd__dlygate4sd3_1
*CAP
1 *987:A0 0.000418809
2 *1240:X 0.000418809
3 *987:A0 *1240:A 0
4 *984:B1 *987:A0 3.73361e-05
5 *986:C1 *987:A0 0
6 *987:A1 *987:A0 0.000107259
7 *259:14 *987:A0 0.000136871
*RES
1 *1240:X *987:A0 34.475 
*END

*D_NET *313 0.000702943
*CONN
*I *1032:A0 I *D sky130_fd_sc_hd__mux2_1
*I *1241:X O *D sky130_fd_sc_hd__dlygate4sd3_1
*CAP
1 *1032:A0 0.000180262
2 *1241:X 0.000180262
3 *1032:A1 *1032:A0 6.07328e-05
4 *1158:CLK *1032:A0 0.0001399
5 *184:20 *1032:A0 5.17614e-05
6 *184:32 *1032:A0 3.34295e-05
7 *250:14 *1032:A0 5.65955e-05
*RES
1 *1241:X *1032:A0 31.4393 
*END

*D_NET *314 0.00910766
*CONN
*I *1002:A2 I *D sky130_fd_sc_hd__a21o_1
*I *996:A2 I *D sky130_fd_sc_hd__a22o_1
*I *997:A2 I *D sky130_fd_sc_hd__o221a_2
*I *1265:X O *D sky130_fd_sc_hd__buf_1
*CAP
1 *1002:A2 2.23854e-05
2 *996:A2 0
3 *997:A2 0.000179835
4 *1265:X 0.00159287
5 *314:22 0.000660238
6 *314:14 0.00209566
7 *997:A2 *1204:A 2.00751e-05
8 *314:22 *1204:A 0.000185124
9 o_index[0] *314:14 1.56e-05
10 *991:A2 *314:14 1.6102e-05
11 *991:B1 *314:14 0.000170351
12 *996:B1 *997:A2 7.42921e-05
13 *997:B2 *997:A2 0.000134983
14 *1002:B1 *314:22 8.02324e-05
15 *1092:A0 *314:14 1.69961e-05
16 *1092:A0 *314:22 9.60939e-05
17 *1136:D *314:14 9.77118e-05
18 *1170:RESET_B *997:A2 8.61222e-05
19 *1234:A *314:14 0.000188586
20 *1256:A *314:22 7.22626e-05
21 *1260:A *314:14 5.71472e-05
22 *1262:A *314:14 5.71472e-05
23 *1265:A *314:14 1.74352e-05
24 *93:219 *997:A2 3.67279e-06
25 *93:265 *314:14 0.00280666
26 *253:20 *314:22 0.000184961
27 *259:14 *314:14 2.89016e-05
28 *261:12 *314:14 4.18895e-05
29 *281:6 *314:14 0.000104331
*RES
1 *1265:X *314:14 48.2107 
2 *314:14 *314:22 9.625 
3 *314:22 *997:A2 23.2821 
4 *314:22 *996:A2 9.3 
5 *314:14 *1002:A2 9.72857 
*END

*D_NET *315 0.00103357
*CONN
*I *1000:A0 I *D sky130_fd_sc_hd__mux2_1
*I *1242:X O *D sky130_fd_sc_hd__dlygate4sd3_1
*CAP
1 *1000:A0 0.000461947
2 *1242:X 0.000461947
3 *303:30 *1000:A0 1.35553e-05
4 *303:47 *1000:A0 9.61187e-05
*RES
1 *1242:X *1000:A0 33.2786 
*END

*D_NET *316 0.000833788
*CONN
*I *1017:A0 I *D sky130_fd_sc_hd__mux2_1
*I *1243:X O *D sky130_fd_sc_hd__dlygate4sd3_1
*CAP
1 *1017:A0 0.000176195
2 *1243:X 0.000176195
3 *1017:A0 *1011:A 0.000146251
4 *1017:A0 *1012:B1 0.000184521
5 *1017:A0 *1017:A1 0.000150625
*RES
1 *1243:X *1017:A0 31.3143 
*END

*D_NET *317 0.000435295
*CONN
*I *1045:A0 I *D sky130_fd_sc_hd__mux2_1
*I *1244:X O *D sky130_fd_sc_hd__dlygate4sd3_1
*CAP
1 *1045:A0 0.000190168
2 *1244:X 0.000190168
3 *1045:A1 *1045:A0 5.4959e-05
*RES
1 *1244:X *1045:A0 21.6 
*END

*D_NET *318 0.000815567
*CONN
*I *989:A0 I *D sky130_fd_sc_hd__mux2_1
*I *1245:X O *D sky130_fd_sc_hd__dlygate4sd3_1
*CAP
1 *989:A0 0.000156285
2 *1245:X 0.000156285
3 *1087:A *989:A0 5.14623e-05
4 *1136:CLK *989:A0 6.54574e-05
5 *1140:CLK *989:A0 1.52978e-05
6 *1177:CLK *989:A0 4.72917e-05
7 *247:62 *989:A0 0.000142717
8 *270:18 *989:A0 0.00018077
*RES
1 *1245:X *989:A0 32.1536 
*END

*D_NET *319 0.00887746
*CONN
*I *1015:A1 I *D sky130_fd_sc_hd__mux2_1
*I *1012:B1 I *D sky130_fd_sc_hd__o211a_1
*I *1266:X O *D sky130_fd_sc_hd__buf_1
*CAP
1 *1015:A1 0
2 *1012:B1 0.000494561
3 *1266:X 0.000225825
4 *319:10 0.00255524
5 *319:8 0.00228651
6 *1012:B1 *1011:A 0
7 *1012:B1 *1012:A2 1.02504e-05
8 *1012:B1 *326:53 0.000114829
9 *1012:B1 *340:6 0.000440842
10 *1014:C1 *1012:B1 3.4846e-06
11 *1017:A0 *1012:B1 0.000184521
12 *1071:A *319:10 0
13 *1077:A *319:10 0
14 *1088:A0 *319:10 9.01525e-05
15 *1097:A0 *319:10 0.000138205
16 *1137:D *319:10 0
17 *1143:RESET_B *1012:B1 0.000202128
18 *1143:RESET_B *319:10 8.97475e-05
19 *1148:D *319:10 6.6742e-05
20 *1153:CLK *1012:B1 1.99099e-05
21 *1153:CLK *319:10 8.57292e-05
22 *1154:D *319:10 0
23 *1169:CLK *319:10 8.79776e-05
24 *1169:D *319:10 0
25 *1178:D *319:10 0.000177948
26 *1182:RESET_B *319:10 0
27 *30:34 *319:10 0.00110633
28 *173:16 *1012:B1 8.8355e-05
29 *241:12 *319:10 0.000188699
30 *241:38 *319:10 0.000219468
31 *256:405 *319:10 0
*RES
1 *1266:X *319:8 16.3893 
2 *319:8 *319:10 47.4821 
3 *319:10 *1012:B1 34.4964 
4 *319:10 *1015:A1 13.8 
*END

*D_NET *320 0.00836845
*CONN
*I *1012:A2 I *D sky130_fd_sc_hd__o211a_1
*I *1017:A1 I *D sky130_fd_sc_hd__mux2_1
*I *1013:B2 I *D sky130_fd_sc_hd__a22o_1
*I *1267:X O *D sky130_fd_sc_hd__buf_1
*CAP
1 *1012:A2 0.000120345
2 *1017:A1 0.000365862
3 *1013:B2 9.79595e-06
4 *1267:X 0.00115261
5 *320:30 0.000565438
6 *320:22 0.00111333
7 *320:16 0.00195581
8 *1012:A2 *326:53 0.000234617
9 *1013:B2 *1009:A 5.65955e-05
10 *1017:A1 *1011:A 3.26179e-05
11 *320:22 *1034:A0 5.1601e-05
12 *320:22 *326:53 0.000295001
13 *320:30 *1009:A 8.67797e-05
14 *1012:B1 *1012:A2 1.02504e-05
15 *1012:C1 *1017:A1 4.15914e-05
16 *1013:A1 *1013:B2 5.49489e-05
17 *1013:A1 *320:30 5.49544e-05
18 *1014:A1 *1017:A1 0.000121842
19 *1014:A2 *1017:A1 4.89168e-05
20 *1014:A2 *320:30 0
21 *1014:B2 *1017:A1 0.000121254
22 *1014:C1 *1017:A1 2.71557e-05
23 *1017:A0 *1017:A1 0.000150625
24 *1034:A1 *320:22 0
25 *1035:A *320:22 7.74135e-05
26 *1150:RESET_B *320:22 0.000126289
27 *1267:A *320:16 8.00806e-05
28 *93:66 *320:22 0
29 *168:6 *320:30 4.17433e-05
30 *173:16 *1017:A1 0
31 *240:67 *320:22 0.000218522
32 *251:14 *320:22 0
33 *252:23 *320:22 0
34 *255:20 *320:16 0.00115247
35 *256:189 *1017:A1 0
*RES
1 *1267:X *320:16 46.1571 
2 *320:16 *320:22 17.0268 
3 *320:22 *320:30 7.49107 
4 *320:30 *1013:B2 9.83571 
5 *320:30 *1017:A1 26.675 
6 *320:22 *1012:A2 16.8089 
*END

*D_NET *321 0.000256739
*CONN
*I *1230:A I *D sky130_fd_sc_hd__dlygate4sd3_1
*I *1140:Q O *D sky130_fd_sc_hd__dfrtp_1
*CAP
1 *1230:A 8.83291e-05
2 *1140:Q 8.83291e-05
3 *256:628 *1230:A 8.00806e-05
*RES
1 *1140:Q *1230:A 29.3679 
*END

*D_NET *322 0.000271855
*CONN
*I *1227:A I *D sky130_fd_sc_hd__dlygate4sd3_1
*I *1141:Q O *D sky130_fd_sc_hd__dfrtp_1
*CAP
1 *1227:A 5.36124e-05
2 *1141:Q 5.36124e-05
3 *1085:A *1227:A 3.77553e-05
4 *256:628 *1227:A 0.000126875
*RES
1 *1141:Q *1227:A 29.2429 
*END

*D_NET *323 8.04842e-05
*CONN
*I *1221:A I *D sky130_fd_sc_hd__dlygate4sd3_1
*I *1142:Q O *D sky130_fd_sc_hd__dfrtp_1
*CAP
1 *1221:A 2.59761e-05
2 *1142:Q 2.59761e-05
3 *246:83 *1221:A 2.85321e-05
*RES
1 *1142:Q *1221:A 19.1357 
*END

*D_NET *324 0.0248795
*CONN
*I *975:A1 I *D sky130_fd_sc_hd__mux2_1
*I *1003:A1 I *D sky130_fd_sc_hd__mux2_1
*I *1233:A I *D sky130_fd_sc_hd__dlygate4sd3_1
*I *1126:A2 I *D sky130_fd_sc_hd__a21oi_1
*I *1020:A1 I *D sky130_fd_sc_hd__mux2_1
*I *1037:A1 I *D sky130_fd_sc_hd__mux2_1
*I *1048:A1 I *D sky130_fd_sc_hd__mux2_1
*I *920:C I *D sky130_fd_sc_hd__and3_1
*I *1192:Q O *D sky130_fd_sc_hd__dfrtp_4
*CAP
1 *975:A1 3.94769e-05
2 *1003:A1 0
3 *1233:A 3.861e-05
4 *1126:A2 0
5 *1020:A1 0.00126013
6 *1037:A1 0.000273223
7 *1048:A1 0.000203713
8 *920:C 0.000318163
9 *1192:Q 7.48698e-05
10 *324:120 0.00155369
11 *324:106 0.00195577
12 *324:70 0.00315174
13 *324:34 0.000680706
14 *324:32 0.00187679
15 *324:26 0.000878561
16 *324:18 0.00184841
17 *324:8 0.00146828
18 *920:C *1229:A 2.06413e-05
19 *1020:A1 *937:B_N 4.75428e-05
20 *1020:A1 *1074:A0 0.00034144
21 *1048:A1 *920:B 5.49995e-05
22 *1233:A *325:97 3.50746e-05
23 *324:18 *970:A 7.25873e-06
24 *324:18 *325:97 0.000937852
25 *324:26 *325:8 0.000569605
26 *324:26 *325:97 1.0484e-05
27 *324:32 *325:8 6.9709e-05
28 *324:32 *325:12 0.000224575
29 *324:34 *920:B 0.000193004
30 *324:34 *325:14 9.96487e-05
31 *324:70 *325:14 2.22419e-05
32 *324:70 *325:54 0.00119337
33 *324:120 *1005:A1 0.000552306
34 *324:120 *1217:A 4.07505e-05
35 *950:A *1020:A1 0
36 *972:A2 *324:18 0.000107555
37 *975:S *324:120 9.66928e-05
38 *976:A *324:106 2.79092e-05
39 *977:A0 *324:120 9.28727e-05
40 *1006:A *324:120 3.91782e-05
41 *1048:A0 *920:C 5.84279e-05
42 *1048:A0 *1048:A1 0.000112982
43 *1048:A0 *324:34 8.53251e-05
44 *1049:A *920:C 0
45 *1054:A1 *975:A1 5.65955e-05
46 *1054:A1 *324:120 1.32056e-05
47 *1055:A *324:120 0.000249594
48 *1056:A1 *324:120 4.6845e-05
49 *1060:A1 *324:26 4.28167e-05
50 *1060:S *324:70 0
51 *1067:A *1020:A1 2.48421e-05
52 *1075:A *1020:A1 0.000160619
53 *1080:A1 *324:120 0
54 *1082:S *324:120 0.000215108
55 *1117:A *1020:A1 0.000128161
56 *1120:A *324:70 8.46495e-05
57 *1127:A *1048:A1 5.49995e-05
58 *1131:D *324:120 7.57869e-05
59 *1141:D *324:120 0.000290727
60 *1174:D *324:120 5.84648e-05
61 *1189:CLK *1020:A1 0.000261525
62 *1190:RESET_B *324:70 0.000137639
63 *1193:CLK *324:26 5.54817e-06
64 *1193:D *920:C 8.66612e-05
65 *1197:A *1037:A1 0.000141935
66 *1197:A *324:70 0.000101601
67 *93:122 *324:32 0.000308007
68 *93:133 *324:32 5.49995e-05
69 *93:213 *1020:A1 0
70 *102:43 *1020:A1 8.39e-05
71 *102:54 *1020:A1 0
72 *126:43 *1020:A1 0.000311584
73 *126:54 *1020:A1 0.00022015
74 *145:55 *324:106 0
75 *145:55 *324:120 3.34295e-05
76 *154:33 *324:120 0
77 *239:55 *324:70 8.00984e-06
78 *239:59 *324:70 0.000893678
79 *245:10 *1020:A1 0
80 *256:38 *324:106 0
81 *256:292 *1020:A1 0
82 *256:318 *1020:A1 0
83 *256:330 *1020:A1 0
84 *294:14 *324:120 2.14001e-05
85 *300:6 *975:A1 4.33899e-05
*RES
1 *1192:Q *324:8 14.7464 
2 *324:8 *324:18 23.3393 
3 *324:18 *324:26 20.4286 
4 *324:26 *324:32 8.33929 
5 *324:32 *324:34 4.07143 
6 *324:34 *920:C 18.9696 
7 *324:34 *1048:A1 18.05 
8 *324:32 *324:70 35.5357 
9 *324:70 *1037:A1 12.7107 
10 *324:70 *1020:A1 46.6571 
11 *324:26 *1126:A2 9.3 
12 *324:18 *1233:A 10.3357 
13 *324:8 *324:106 11.125 
14 *324:106 *324:120 46.1964 
15 *324:120 *1003:A1 9.3 
16 *324:106 *975:A1 10.2464 
*END

*D_NET *325 0.0236274
*CONN
*I *1005:A1 I *D sky130_fd_sc_hd__mux2_1
*I *977:A1 I *D sky130_fd_sc_hd__mux2_1
*I *1126:B1 I *D sky130_fd_sc_hd__a21oi_1
*I *1039:A1 I *D sky130_fd_sc_hd__mux2_1
*I *1022:A1 I *D sky130_fd_sc_hd__mux2_1
*I *1050:A1 I *D sky130_fd_sc_hd__mux2_1
*I *920:B I *D sky130_fd_sc_hd__and3_1
*I *1193:Q O *D sky130_fd_sc_hd__dfrtp_4
*CAP
1 *1005:A1 0.00130166
2 *977:A1 0.000118693
3 *1126:B1 0
4 *1039:A1 0
5 *1022:A1 0.00102024
6 *1050:A1 0.00020255
7 *920:B 0.00032042
8 *1193:Q 0
9 *325:97 0.00219678
10 *325:54 0.00243574
11 *325:14 0.000595431
12 *325:12 0.00155344
13 *325:8 0.000479303
14 *325:4 0.00119025
15 *920:B *1214:A 1.67642e-05
16 *1005:A1 *923:A 0
17 *1022:A1 *1024:A1 0.000795824
18 *1022:A1 *326:53 0.000308685
19 *1050:A1 *1214:A 0.000140243
20 *325:12 *326:36 0.000224575
21 *325:14 *1214:A 2.11693e-05
22 *325:54 *945:B 0.000196262
23 *325:54 *1068:A0 0.000101948
24 *325:54 *368:8 0.000125724
25 *949:A *325:54 0.000470699
26 *972:A2 *325:97 4.6829e-05
27 *972:C1 *325:97 1.84865e-05
28 *977:A0 *977:A1 3.18676e-05
29 *977:A0 *1005:A1 8.41296e-05
30 *979:A0 *325:97 0
31 *1007:S *1005:A1 0.000319187
32 *1039:A0 *1022:A1 5.66971e-05
33 *1039:A0 *325:54 0.000225446
34 *1040:A *1022:A1 5.33005e-05
35 *1048:A1 *920:B 5.49995e-05
36 *1050:A0 *1050:A1 9.82112e-05
37 *1050:S *1050:A1 2.85234e-05
38 *1055:A *1005:A1 0.000501327
39 *1056:A1 *1005:A1 4.31723e-05
40 *1058:A1 *325:97 0
41 *1062:A0 *325:54 0.000206285
42 *1062:A1 *1050:A1 2.37871e-05
43 *1068:S *325:54 7.62237e-05
44 *1070:A1 *1022:A1 2.56601e-05
45 *1083:A *1005:A1 6.23427e-05
46 *1120:A *325:54 8.04472e-05
47 *1127:A *920:B 5.89668e-05
48 *1131:CLK *1005:A1 0
49 *1154:RESET_B *1022:A1 0.000249486
50 *1156:CLK *325:97 0.000171355
51 *1161:CLK *1005:A1 0
52 *1161:D *1005:A1 0.000104974
53 *1193:D *325:8 3.4689e-05
54 *1193:RESET_B *325:8 2.72654e-05
55 *1200:A *1022:A1 0.000125679
56 *1233:A *325:97 3.50746e-05
57 *1250:A *325:54 0.000317503
58 *1273:A *325:97 0
59 *93:122 *325:12 2.6269e-05
60 *93:122 *325:14 3.67279e-06
61 *93:122 *325:54 8.23781e-05
62 *94:17 *920:B 9.58632e-05
63 *119:14 *325:54 8.74791e-05
64 *126:69 *1022:A1 0
65 *126:198 *1005:A1 0
66 *145:40 *325:97 0.000388919
67 *154:33 *1005:A1 5.80706e-06
68 *173:38 *1022:A1 0.000185408
69 *173:38 *325:54 5.66971e-05
70 *242:86 *325:97 0
71 *253:72 *1050:A1 7.71485e-05
72 *256:36 *1005:A1 0.00027338
73 *256:36 *325:97 0.000117189
74 *256:38 *325:97 0.000169099
75 *256:77 *325:8 6.97022e-05
76 *256:77 *325:97 0.000461448
77 *256:83 *325:8 3.20935e-05
78 *256:266 *1022:A1 0.000335355
79 *256:286 *1022:A1 0.000260617
80 *256:292 *1022:A1 0
81 *303:30 *1022:A1 4.77263e-05
82 *324:18 *325:97 0.000937852
83 *324:26 *325:8 0.000569605
84 *324:26 *325:97 1.0484e-05
85 *324:32 *325:8 6.9709e-05
86 *324:32 *325:12 0.000224575
87 *324:34 *920:B 0.000193004
88 *324:34 *325:14 9.96487e-05
89 *324:70 *325:14 2.22419e-05
90 *324:70 *325:54 0.00119337
91 *324:120 *1005:A1 0.000552306
*RES
1 *1193:Q *325:4 9.3 
2 *325:4 *325:8 11.6429 
3 *325:8 *325:12 7.08929 
4 *325:12 *325:14 1.64286 
5 *325:14 *920:B 18.9429 
6 *325:14 *1050:A1 19.0143 
7 *325:12 *325:54 37.6607 
8 *325:54 *1022:A1 46.3714 
9 *325:54 *1039:A1 9.3 
10 *325:8 *1126:B1 9.3 
11 *325:4 *325:97 27.3036 
12 *325:97 *977:A1 15.1571 
13 *325:97 *1005:A1 46.7643 
*END

*D_NET *326 0.0231568
*CONN
*I *1007:A1 I *D sky130_fd_sc_hd__mux2_1
*I *979:A1 I *D sky130_fd_sc_hd__mux2_1
*I *1128:A I *D sky130_fd_sc_hd__nor2_1
*I *921:A I *D sky130_fd_sc_hd__and2_1
*I *1024:A1 I *D sky130_fd_sc_hd__mux2_1
*I *1041:A1 I *D sky130_fd_sc_hd__mux2_1
*I *1052:A1 I *D sky130_fd_sc_hd__mux2_1
*I *1194:Q O *D sky130_fd_sc_hd__dfrtp_4
*CAP
1 *1007:A1 0
2 *979:A1 0
3 *1128:A 0.000122047
4 *921:A 0
5 *1024:A1 0.000723711
6 *1041:A1 8.83943e-05
7 *1052:A1 0
8 *1194:Q 2.22847e-05
9 *326:130 0.00118619
10 *326:115 0.00229657
11 *326:53 0.00191782
12 *326:36 0.002344
13 *326:18 0.00182128
14 *326:8 0.000881127
15 *326:6 0.00130876
16 *1024:A1 *1205:A 5.84171e-05
17 *326:53 *1011:A 0
18 *326:53 *1205:A 5.80706e-06
19 *326:130 *932:A1 0.000396185
20 *920:A *326:36 2.59355e-05
21 *931:A1 *326:130 0.00117435
22 *932:C1 *326:130 0.000315383
23 *979:A0 *326:115 5.52302e-05
24 *979:A0 *326:130 4.38128e-05
25 *1007:A0 *326:130 5.66971e-05
26 *1008:A *326:130 2.59355e-05
27 *1012:A2 *326:53 0.000234617
28 *1012:B1 *326:53 0.000114829
29 *1022:A1 *1024:A1 0.000795824
30 *1022:A1 *326:53 0.000308685
31 *1025:A *1024:A1 0.00015136
32 *1041:A0 *1041:A1 0.000212277
33 *1041:S *1041:A1 1.99993e-05
34 *1043:A0 *326:115 3.9733e-05
35 *1048:A0 *326:36 9.65127e-05
36 *1052:A0 *326:36 0.000450146
37 *1053:A *326:36 3.49456e-06
38 *1053:A *326:53 7.88091e-05
39 *1125:B *326:115 4.0698e-05
40 *1127:B *326:36 0.00042879
41 *1128:B *1128:A 3.49456e-06
42 *1129:B *326:18 0
43 *1132:D *326:130 6.97972e-05
44 *1148:RESET_B *1024:A1 0.000144773
45 *1152:D *326:53 0.000101915
46 *1153:D *326:53 0.000102185
47 *1157:RESET_B *326:115 9.08656e-05
48 *1159:CLK *326:36 5.50052e-05
49 *1159:D *326:36 2.85234e-05
50 *1159:RESET_B *326:36 0.000128043
51 *1167:CLK *1041:A1 0.000163094
52 *1193:D *326:18 4.24059e-05
53 *1193:D *326:36 2.97001e-05
54 *1194:D *326:18 0.00014285
55 *1194:RESET_B *1128:A 7.83659e-05
56 *1194:RESET_B *326:8 4.18895e-05
57 *1194:RESET_B *326:18 5.048e-05
58 *1273:A *326:130 0
59 *93:122 *326:36 7.0172e-05
60 *93:133 *326:18 5.5764e-05
61 *93:141 *326:8 1.62549e-05
62 *93:141 *326:18 0.000157065
63 *93:141 *326:115 2.37995e-05
64 *93:162 *326:115 0.000135349
65 *94:17 *326:18 5.33005e-05
66 *94:17 *326:36 0.000175892
67 *99:59 *326:130 2.6519e-05
68 *113:8 *326:130 0.000112708
69 *126:144 *326:115 0.000172895
70 *126:144 *326:130 0.000214847
71 *126:157 *326:130 0.000280683
72 *126:177 *326:130 0.000294848
73 *240:31 *326:36 0.000268042
74 *242:86 *326:115 1.21258e-05
75 *244:44 *1024:A1 3.08561e-05
76 *253:72 *1128:A 1.32293e-05
77 *256:77 *326:115 3.70696e-05
78 *256:254 *326:53 0.000449924
79 *256:266 *326:53 4.17673e-05
80 *291:6 *326:36 8.69164e-05
81 *303:24 *1024:A1 0.00078807
82 *303:30 *1024:A1 0
83 *320:22 *326:53 0.000295001
84 *325:12 *326:36 0.000224575
*RES
1 *1194:Q *326:6 9.72857 
2 *326:6 *326:8 2.17857 
3 *326:8 *326:18 17.7679 
4 *326:18 *326:36 36.8929 
5 *326:36 *1052:A1 9.3 
6 *326:36 *326:53 30.6786 
7 *326:53 *1041:A1 17.3714 
8 *326:53 *1024:A1 35.6036 
9 *326:18 *921:A 9.3 
10 *326:8 *1128:A 20.6036 
11 *326:6 *326:115 27.4821 
12 *326:115 *979:A1 9.3 
13 *326:115 *326:130 41.3929 
14 *326:130 *1007:A1 9.3 
*END

*D_NET *327 0.00159736
*CONN
*I *1240:A I *D sky130_fd_sc_hd__dlygate4sd3_1
*I *983:A I *D sky130_fd_sc_hd__inv_2
*I *1134:Q O *D sky130_fd_sc_hd__dfrtp_1
*CAP
1 *1240:A 0.00044595
2 *983:A 0.000116497
3 *1134:Q 8.71376e-05
4 *327:6 0.000649585
5 *986:C1 *1240:A 0
6 *987:A0 *1240:A 0
7 *1134:RESET_B *983:A 7.26481e-05
8 *1134:RESET_B *327:6 2.51343e-06
9 *259:14 *983:A 0.000223033
*RES
1 *1134:Q *327:6 10.2464 
2 *327:6 *983:A 21.4607 
3 *327:6 *1240:A 23.7643 
*END

*D_NET *328 0.000933437
*CONN
*I *1245:A I *D sky130_fd_sc_hd__dlygate4sd3_1
*I *982:A I *D sky130_fd_sc_hd__inv_2
*I *1135:Q O *D sky130_fd_sc_hd__dfrtp_1
*CAP
1 *1245:A 5.85075e-05
2 *982:A 0.000138069
3 *1135:Q 4.17073e-05
4 *328:6 0.000238284
5 *984:A1 *982:A 1.02301e-05
6 *1087:A *1245:A 7.34896e-05
7 *1136:CLK *982:A 4.60115e-05
8 *99:22 *1245:A 0.00022867
9 *99:22 *328:6 9.84673e-05
*RES
1 *1135:Q *328:6 10.2464 
2 *328:6 *982:A 20.9786 
3 *328:6 *1245:A 11.4786 
*END

*D_NET *329 0.000764032
*CONN
*I *1237:A I *D sky130_fd_sc_hd__dlygate4sd3_1
*I *981:A I *D sky130_fd_sc_hd__inv_2
*I *1136:Q O *D sky130_fd_sc_hd__dfrtp_1
*CAP
1 *1237:A 9.66197e-05
2 *981:A 0.000285396
3 *1136:Q 0
4 *329:6 0.000382016
5 *1262:A *1237:A 0
6 *281:29 *981:A 0
7 *281:29 *1237:A 0
*RES
1 *1136:Q *329:6 13.8 
2 *329:6 *981:A 18.8536 
3 *329:6 *1237:A 15.4429 
*END

*D_NET *330 0.000385295
*CONN
*I *1211:A I *D sky130_fd_sc_hd__dlygate4sd3_1
*I *1146:Q O *D sky130_fd_sc_hd__dfrtp_1
*CAP
1 *1211:A 0.000143129
2 *1146:Q 0.000143129
3 *93:219 *1211:A 0
4 *102:30 *1211:A 9.90367e-05
5 *102:43 *1211:A 0
*RES
1 *1146:Q *1211:A 30.1893 
*END

*D_NET *331 0.000436676
*CONN
*I *1223:A I *D sky130_fd_sc_hd__dlygate4sd3_1
*I *1147:Q O *D sky130_fd_sc_hd__dfrtp_1
*CAP
1 *1223:A 0.000175281
2 *1147:Q 0.000175281
3 *1075:A *1223:A 5.50052e-05
4 *296:10 *1223:A 3.11088e-05
*RES
1 *1147:Q *1223:A 21.6 
*END

*D_NET *332 0.0019666
*CONN
*I *1207:A I *D sky130_fd_sc_hd__dlygate4sd3_1
*I *1148:Q O *D sky130_fd_sc_hd__dfrtp_1
*CAP
1 *1207:A 0.000446703
2 *1148:Q 0.000446703
3 *1024:A0 *1207:A 5.71472e-05
4 *1148:RESET_B *1207:A 0.000571868
5 *245:10 *1207:A 0.000115611
6 *256:354 *1207:A 0.000128154
7 *256:367 *1207:A 0.000200413
*RES
1 *1148:Q *1207:A 38.4036 
*END

*D_NET *333 0.000491372
*CONN
*I *1239:A I *D sky130_fd_sc_hd__dlygate4sd3_1
*I *994:A I *D sky130_fd_sc_hd__inv_2
*I *1137:Q O *D sky130_fd_sc_hd__dfrtp_1
*CAP
1 *1239:A 6.48216e-05
2 *994:A 4.3454e-05
3 *1137:Q 4.16687e-05
4 *333:8 0.000149944
5 *996:A1 *1239:A 0
6 *996:B2 *994:A 4.44164e-05
7 *996:B2 *1239:A 0.000118166
8 *997:A1 *994:A 0
9 *1139:RESET_B *333:8 2.89016e-05
*RES
1 *1137:Q *333:8 14.3357 
2 *333:8 *994:A 14.8357 
3 *333:8 *1239:A 15.4429 
*END

*D_NET *334 0.000696844
*CONN
*I *1242:A I *D sky130_fd_sc_hd__dlygate4sd3_1
*I *993:A I *D sky130_fd_sc_hd__inv_2
*I *1138:Q O *D sky130_fd_sc_hd__dfrtp_1
*CAP
1 *1242:A 0.000150767
2 *993:A 0.000147207
3 *1138:Q 3.68446e-05
4 *334:6 0.000334819
5 *996:B2 *993:A 2.72055e-05
*RES
1 *1138:Q *334:6 9.83571 
2 *334:6 *993:A 20.8536 
3 *334:6 *1242:A 11.8893 
*END

*D_NET *335 0.0017308
*CONN
*I *1204:A I *D sky130_fd_sc_hd__dlygate4sd3_1
*I *992:A I *D sky130_fd_sc_hd__inv_2
*I *1139:Q O *D sky130_fd_sc_hd__dfrtp_1
*CAP
1 *1204:A 0.000412104
2 *992:A 4.28405e-05
3 *1139:Q 0
4 *335:4 0.000454944
5 *996:A1 *992:A 5.80706e-06
6 *996:B1 *992:A 1.69115e-05
7 *997:A1 *992:A 4.44164e-05
8 *997:A2 *1204:A 2.00751e-05
9 *997:B2 *1204:A 7.83659e-05
10 *1092:S *992:A 5.66971e-05
11 *1139:CLK *992:A 1.49942e-05
12 *1139:CLK *1204:A 0.000161378
13 *1139:RESET_B *992:A 5.49995e-05
14 *1139:RESET_B *1204:A 3.87674e-05
15 *1256:A *1204:A 0.000143375
16 *314:22 *1204:A 0.000185124
*RES
1 *1139:Q *335:4 9.3 
2 *335:4 *992:A 19.8714 
3 *335:4 *1204:A 25.5321 
*END

*D_NET *336 6.59634e-05
*CONN
*I *1206:A I *D sky130_fd_sc_hd__dlygate4sd3_1
*I *1152:Q O *D sky130_fd_sc_hd__dfrtp_1
*CAP
1 *1206:A 2.24149e-05
2 *1152:Q 2.24149e-05
3 *278:8 *1206:A 2.11336e-05
*RES
1 *1152:Q *1206:A 19.1357 
*END

*D_NET *337 0.00086212
*CONN
*I *1249:A I *D sky130_fd_sc_hd__dlygate4sd3_1
*I *1153:Q O *D sky130_fd_sc_hd__dfrtp_1
*CAP
1 *1249:A 0.000323433
2 *1153:Q 0.000323433
3 *1249:A *946:B 1.33343e-05
4 *1069:A *1249:A 0.000144773
5 *1168:D *1249:A 5.71472e-05
*RES
1 *1153:Q *1249:A 24.475 
*END

*D_NET *338 0.000785529
*CONN
*I *1205:A I *D sky130_fd_sc_hd__dlygate4sd3_1
*I *1154:Q O *D sky130_fd_sc_hd__dfrtp_1
*CAP
1 *1205:A 0.00024723
2 *1154:Q 0.00024723
3 *1024:A1 *1205:A 5.84171e-05
4 *1154:RESET_B *1205:A 0.000226846
5 *326:53 *1205:A 5.80706e-06
*RES
1 *1154:Q *1205:A 31.4214 
*END

*D_NET *339 0.00191931
*CONN
*I *1235:A I *D sky130_fd_sc_hd__dlygate4sd3_1
*I *1011:A I *D sky130_fd_sc_hd__inv_2
*I *1143:Q O *D sky130_fd_sc_hd__dfrtp_1
*CAP
1 *1235:A 0.000186687
2 *1011:A 0.000256296
3 *1143:Q 8.87215e-05
4 *339:8 0.000531704
5 *1011:A *340:6 5.49489e-05
6 *1012:B1 *1011:A 0
7 *1015:A0 *1011:A 4.88537e-05
8 *1015:A0 *1235:A 0.000141734
9 *1017:A0 *1011:A 0.000146251
10 *1017:A1 *1011:A 3.26179e-05
11 *1040:A *1235:A 0.000161183
12 *1153:CLK *1011:A 0
13 *1153:D *1011:A 0
14 *1153:D *1235:A 0.000270314
15 *173:16 *1011:A 0
16 *326:53 *1011:A 0
*RES
1 *1143:Q *339:8 10.675 
2 *339:8 *1011:A 23.5143 
3 *339:8 *1235:A 14.3714 
*END

*D_NET *340 0.00118975
*CONN
*I *1010:A I *D sky130_fd_sc_hd__inv_2
*I *1243:A I *D sky130_fd_sc_hd__dlygate4sd3_1
*I *1144:Q O *D sky130_fd_sc_hd__dfrtp_1
*CAP
1 *1010:A 8.34827e-05
2 *1243:A 0
3 *1144:Q 0.000263496
4 *340:6 0.000346979
5 *1011:A *340:6 5.49489e-05
6 *1012:B1 *340:6 0.000440842
*RES
1 *1144:Q *340:6 14.7643 
2 *340:6 *1243:A 9.3 
3 *340:6 *1010:A 10.675 
*END

*D_NET *341 0.0022662
*CONN
*I *1246:A I *D sky130_fd_sc_hd__dlygate4sd3_1
*I *1009:A I *D sky130_fd_sc_hd__inv_2
*I *1145:Q O *D sky130_fd_sc_hd__dfrtp_1
*CAP
1 *1246:A 0.00030485
2 *1009:A 0.000255396
3 *1145:Q 4.2036e-05
4 *341:6 0.000602282
5 *1013:A1 *1009:A 1.04232e-05
6 *1013:B1 *1009:A 2.41049e-05
7 *1013:B2 *1009:A 5.65955e-05
8 *1053:A *1246:A 0.000310384
9 *1160:D *1009:A 0.000103611
10 *1160:D *1246:A 7.6997e-05
11 *93:66 *1009:A 0.000194122
12 *93:66 *1246:A 2.11693e-05
13 *168:6 *1009:A 2.9986e-05
14 *240:73 *1246:A 9.41642e-05
15 *240:73 *341:6 5.33005e-05
16 *320:30 *1009:A 8.67797e-05
*RES
1 *1145:Q *341:6 9.83571 
2 *341:6 *1009:A 24.1571 
3 *341:6 *1246:A 24.1929 
*END

*D_NET *342 0.00100257
*CONN
*I *1229:A I *D sky130_fd_sc_hd__dlygate4sd3_1
*I *1158:Q O *D sky130_fd_sc_hd__dfrtp_1
*CAP
1 *1229:A 0.000198155
2 *1158:Q 0.000198155
3 *920:C *1229:A 2.06413e-05
4 *1048:A0 *1229:A 0
5 *1049:A *1229:A 0
6 *1060:A1 *1229:A 6.05161e-06
7 *1127:B *1229:A 0.000166381
8 *1194:CLK *1229:A 0.000319018
9 *253:72 *1229:A 9.41642e-05
*RES
1 *1158:Q *1229:A 32.7429 
*END

*D_NET *343 0.000508279
*CONN
*I *1214:A I *D sky130_fd_sc_hd__dlygate4sd3_1
*I *1159:Q O *D sky130_fd_sc_hd__dfrtp_1
*CAP
1 *1214:A 0.000120812
2 *1159:Q 0.000120812
3 *920:B *1214:A 1.67642e-05
4 *1050:A1 *1214:A 0.000140243
5 *1062:A1 *1214:A 3.75959e-05
6 *253:72 *1214:A 5.08826e-05
7 *325:14 *1214:A 2.11693e-05
*RES
1 *1159:Q *1214:A 30.6 
*END

*D_NET *344 0.000226148
*CONN
*I *1219:A I *D sky130_fd_sc_hd__dlygate4sd3_1
*I *1160:Q O *D sky130_fd_sc_hd__dfrtp_1
*CAP
1 *1219:A 7.7206e-05
2 *1160:Q 7.7206e-05
3 *1052:A0 *1219:A 3.20025e-05
4 *1064:A1 *1219:A 3.9733e-05
*RES
1 *1160:Q *1219:A 29.3679 
*END

*D_NET *345 0.00206595
*CONN
*I *1241:A I *D sky130_fd_sc_hd__dlygate4sd3_1
*I *1028:A I *D sky130_fd_sc_hd__inv_2
*I *1149:Q O *D sky130_fd_sc_hd__dfrtp_1
*CAP
1 *1241:A 0
2 *1028:A 0.000238329
3 *1149:Q 0.000382837
4 *345:12 0.000621165
5 *1029:B1 *1028:A 0.000320024
6 *1032:A1 *345:12 0
7 *1049:A *345:12 0
8 *1258:A *1028:A 6.20656e-05
9 *184:32 *345:12 5.16779e-05
10 *250:14 *1028:A 0.000389855
*RES
1 *1149:Q *345:12 23.7286 
2 *345:12 *1028:A 16.425 
3 *345:12 *1241:A 9.3 
*END

*D_NET *346 0.00223629
*CONN
*I *1027:A I *D sky130_fd_sc_hd__inv_2
*I *1034:A0 I *D sky130_fd_sc_hd__mux2_1
*I *1150:Q O *D sky130_fd_sc_hd__dfrtp_1
*CAP
1 *1027:A 0.000326072
2 *1034:A0 0.000339872
3 *1150:Q 6.68564e-05
4 *346:6 0.000732801
5 *1029:C1 *1027:A 5.52302e-05
6 *1030:B2 *1027:A 6.94775e-05
7 *1034:A1 *1034:A0 0.000126416
8 *1149:D *1027:A 0
9 *184:20 *1027:A 7.6644e-05
10 *184:65 *1027:A 0.00013358
11 *240:50 *1034:A0 0.000211414
12 *240:50 *346:6 4.63305e-05
13 *252:23 *1027:A 0
14 *320:22 *1034:A0 5.1601e-05
*RES
1 *1150:Q *346:6 10.2464 
2 *346:6 *1034:A0 24.0679 
3 *346:6 *1027:A 24.7286 
*END

*D_NET *347 0.000812708
*CONN
*I *1026:A I *D sky130_fd_sc_hd__inv_2
*I *1226:A I *D sky130_fd_sc_hd__dlygate4sd3_1
*I *1151:Q O *D sky130_fd_sc_hd__dfrtp_1
*CAP
1 *1026:A 4.87787e-05
2 *1226:A 0
3 *1151:Q 5.55558e-05
4 *347:6 0.000104335
5 *1150:RESET_B *1026:A 3.18676e-05
6 *1150:RESET_B *347:6 0.000170899
7 *93:66 *1026:A 8.57023e-05
8 *93:66 *347:6 0.00031557
*RES
1 *1151:Q *347:6 12.3 
2 *347:6 *1226:A 9.3 
3 *347:6 *1026:A 10.675 
*END

*D_NET *348 0.000366925
*CONN
*I *1228:A I *D sky130_fd_sc_hd__dlygate4sd3_1
*I *1131:Q O *D sky130_fd_sc_hd__dfrtp_1
*CAP
1 *1228:A 0.000183462
2 *1131:Q 0.000183462
3 *270:10 *1228:A 0
*RES
1 *1131:Q *1228:A 30.1893 
*END

*D_NET *349 0.000899108
*CONN
*I *1217:A I *D sky130_fd_sc_hd__dlygate4sd3_1
*I *1132:Q O *D sky130_fd_sc_hd__dfrtp_1
*CAP
1 *1217:A 0.000230433
2 *1132:Q 0.000230433
3 *1054:A1 *1217:A 0.000126416
4 *256:26 *1217:A 0.000271076
5 *324:120 *1217:A 4.07505e-05
*RES
1 *1132:Q *1217:A 31.8321 
*END

*D_NET *350 0.000557326
*CONN
*I *1220:A I *D sky130_fd_sc_hd__dlygate4sd3_1
*I *1133:Q O *D sky130_fd_sc_hd__dfrtp_1
*CAP
1 *1220:A 0.000120122
2 *1133:Q 0.000120122
3 *1133:RESET_B *1220:A 0.000317082
*RES
1 *1133:Q *1220:A 21.6 
*END

*D_NET *351 0.000811179
*CONN
*I *1236:A I *D sky130_fd_sc_hd__dlygate4sd3_1
*I *971:A I *D sky130_fd_sc_hd__inv_2
*I *1155:Q O *D sky130_fd_sc_hd__dfrtp_1
*CAP
1 *1236:A 7.16497e-05
2 *971:A 0.000135657
3 *1155:Q 6.80069e-05
4 *351:6 0.000275314
5 *972:C1 *971:A 7.27183e-05
6 *1043:A0 *351:6 2.59355e-05
7 *1043:S *1236:A 5.33005e-05
8 *1155:RESET_B *1236:A 6.44379e-05
9 *1155:RESET_B *351:6 4.41588e-05
*RES
1 *1155:Q *351:6 10.6571 
2 *351:6 *971:A 20.9786 
3 *351:6 *1236:A 11.0679 
*END

*D_NET *352 0.000885878
*CONN
*I *970:A I *D sky130_fd_sc_hd__inv_2
*I *1244:A I *D sky130_fd_sc_hd__dlygate4sd3_1
*I *1156:Q O *D sky130_fd_sc_hd__dfrtp_1
*CAP
1 *970:A 0.00028376
2 *1244:A 0
3 *1156:Q 0.00015555
4 *352:10 0.000439309
5 *324:18 *970:A 7.25873e-06
*RES
1 *1156:Q *352:10 16.2821 
2 *352:10 *1244:A 13.8 
3 *352:10 *970:A 18.6393 
*END

*D_NET *353 0.00116129
*CONN
*I *969:A I *D sky130_fd_sc_hd__inv_2
*I *1215:A I *D sky130_fd_sc_hd__dlygate4sd3_1
*I *1157:Q O *D sky130_fd_sc_hd__dfrtp_1
*CAP
1 *969:A 0.000106643
2 *1215:A 1.03356e-05
3 *1157:Q 7.33081e-05
4 *353:10 0.000190287
5 *1273:A *353:10 0.000125731
6 *250:14 *969:A 0.000399841
7 *250:14 *1215:A 5.52238e-05
8 *255:35 *969:A 0.000168057
9 *255:35 *1215:A 3.18676e-05
*RES
1 *1157:Q *353:10 19.9429 
2 *353:10 *1215:A 9.83571 
3 *353:10 *969:A 13.55 
*END

*D_NET *354 0.00106299
*CONN
*I *953:A I *D sky130_fd_sc_hd__buf_6
*I *1130:Q O *D sky130_fd_sc_hd__dfrtp_1
*CAP
1 *953:A 0.000338683
2 *1130:Q 0.000338683
3 *242:12 *953:A 0.000333555
4 *242:31 *953:A 5.20669e-05
*RES
1 *1130:Q *953:A 33.3321 
*END

*D_NET *355 0.0129418
*CONN
*I *925:A I *D sky130_fd_sc_hd__inv_2
*I *1105:A I *D sky130_fd_sc_hd__nand2_1
*I *1106:A I *D sky130_fd_sc_hd__or2_1
*I *936:B_N I *D sky130_fd_sc_hd__or2b_1
*I *1084:A1 I *D sky130_fd_sc_hd__mux2_1
*I *932:A1 I *D sky130_fd_sc_hd__a211o_1
*I *941:B I *D sky130_fd_sc_hd__xnor2_1
*I *1183:Q O *D sky130_fd_sc_hd__dfrtp_4
*CAP
1 *925:A 0
2 *1105:A 0
3 *1106:A 0.000242147
4 *936:B_N 0.000266687
5 *1084:A1 0.000997071
6 *932:A1 0.00055514
7 *941:B 0
8 *1183:Q 0.000149652
9 *355:84 0.000581512
10 *355:61 0.000935995
11 *355:53 0.000467581
12 *355:19 0.00162216
13 *355:17 0.000386669
14 *355:6 0.000328735
15 *355:17 *941:A 1.76039e-05
16 *355:61 *1247:A 9.83388e-05
17 *931:A1 *932:A1 2.04626e-05
18 *931:A1 *355:17 1.08359e-05
19 *931:A1 *355:53 0.000472288
20 *932:B1 *932:A1 0.000156538
21 *1008:A *932:A1 0.000335348
22 *1008:A *355:17 9.25014e-06
23 *1008:A *355:19 0.000199825
24 *1084:S *1084:A1 4.34416e-05
25 *1101:B1 *355:61 5.52302e-05
26 *1102:C *355:84 3.92757e-05
27 *1103:A *355:84 0
28 *1112:A1 *936:B_N 0.000198935
29 *1114:B1 *936:B_N 0.000143633
30 *1115:B *936:B_N 2.45006e-05
31 *1141:D *1084:A1 6.96806e-05
32 *1141:RESET_B *1084:A1 8.92098e-05
33 *1142:D *932:A1 0.000173159
34 *1142:D *355:19 0.00011843
35 *1183:RESET_B *355:6 5.20669e-05
36 *1191:RESET_B *932:A1 0.000465907
37 *1203:A *936:B_N 0.000209082
38 *30:113 *1084:A1 0.000228514
39 *97:33 *932:A1 8.07291e-05
40 *98:8 *355:53 5.49544e-05
41 *98:8 *355:61 0.000967891
42 *99:134 *1106:A 0.000148911
43 *102:30 *355:84 0.000310286
44 *126:177 *932:A1 0.000242889
45 *126:265 *1106:A 9.58478e-05
46 *139:23 *936:B_N 0.000111999
47 *139:23 *355:84 3.5626e-05
48 *139:36 *355:84 0.000243635
49 *139:47 *355:84 0.000151333
50 *219:22 *936:B_N 7.77946e-05
51 *219:45 *1106:A 0
52 *256:688 *355:17 0
53 *256:696 *355:17 0
54 *256:696 *355:53 3.33238e-05
55 *256:702 *355:53 0.000102121
56 *256:702 *355:61 8.32001e-05
57 *256:720 *355:53 4.01254e-05
58 *326:130 *932:A1 0.000396185
*RES
1 *1183:Q *355:6 11.8893 
2 *355:6 *941:B 9.3 
3 *355:6 *355:17 7.58929 
4 *355:17 *355:19 2.55357 
5 *355:19 *932:A1 30.5321 
6 *355:19 *1084:A1 30.4964 
7 *355:17 *355:53 9.55357 
8 *355:53 *355:61 14.7768 
9 *355:61 *936:B_N 20.8089 
10 *355:61 *355:84 12.9375 
11 *355:84 *1106:A 22.8357 
12 *355:84 *1105:A 9.3 
13 *355:53 *925:A 9.3 
*END

*D_NET *356 0.000172709
*CONN
*I *926:A I *D sky130_fd_sc_hd__clkbuf_4
*I *1184:Q O *D sky130_fd_sc_hd__dfrtp_1
*CAP
1 *926:A 5.88753e-05
2 *1184:Q 5.88753e-05
3 *256:771 *926:A 5.4959e-05
*RES
1 *1184:Q *926:A 19.975 
*END

*D_NET *357 0.000807565
*CONN
*I *929:A I *D sky130_fd_sc_hd__clkbuf_4
*I *1185:Q O *D sky130_fd_sc_hd__dfrtp_1
*CAP
1 *929:A 0.000247715
2 *1185:Q 0.000247715
3 *1185:RESET_B *929:A 0.000183955
4 *126:242 *929:A 9.99853e-05
5 *256:753 *929:A 2.81946e-05
*RES
1 *1185:Q *929:A 31.6536 
*END

*D_NET *358 0.00184876
*CONN
*I *1231:A I *D sky130_fd_sc_hd__dlygate4sd3_1
*I *941:A I *D sky130_fd_sc_hd__xnor2_1
*I *1173:Q O *D sky130_fd_sc_hd__dfrtp_1
*CAP
1 *1231:A 0.000221864
2 *941:A 0.000412868
3 *1173:Q 0
4 *358:4 0.000634731
5 *1078:A0 *1231:A 5.71472e-05
6 *1078:A1 *941:A 0
7 *1140:CLK *1231:A 1.97695e-05
8 *1173:RESET_B *941:A 9.39411e-05
9 *126:228 *1231:A 0.000146591
10 *126:242 *941:A 0
11 *126:242 *1231:A 5.33786e-05
12 *247:62 *941:A 5.15078e-05
13 *256:688 *941:A 0.000139355
14 *355:17 *941:A 1.76039e-05
*RES
1 *1173:Q *358:4 9.3 
2 *358:4 *941:A 25.675 
3 *358:4 *1231:A 23.0679 
*END

*D_NET *359 0.00097959
*CONN
*I *940:A I *D sky130_fd_sc_hd__xnor2_1
*I *1232:A I *D sky130_fd_sc_hd__dlygate4sd3_1
*I *1174:Q O *D sky130_fd_sc_hd__dfrtp_1
*CAP
1 *940:A 0.000139702
2 *1232:A 3.7583e-05
3 *1174:Q 0.000181334
4 *359:10 0.000358619
5 *940:B *940:A 9.83388e-05
6 *99:51 *940:A 6.2379e-05
7 *99:51 *359:10 0.000101634
*RES
1 *1174:Q *359:10 16.8893 
2 *359:10 *1232:A 14.5321 
3 *359:10 *940:A 16.8 
*END

*D_NET *360 0.00347125
*CONN
*I *1082:A0 I *D sky130_fd_sc_hd__mux2_1
*I *939:A I *D sky130_fd_sc_hd__xnor2_1
*I *1175:Q O *D sky130_fd_sc_hd__dfrtp_1
*CAP
1 *1082:A0 0
2 *939:A 0.000887859
3 *1175:Q 0.000128365
4 *360:12 0.00101622
5 *942:B *939:A 1.13883e-05
6 *942:C *939:A 0.000139338
7 *962:A *939:A 0.000143673
8 *1082:S *360:12 7.74068e-05
9 *1174:D *360:12 7.74068e-05
10 *113:8 *939:A 0.00085286
11 *113:8 *360:12 0.000136727
*RES
1 *1175:Q *360:12 20.6929 
2 *360:12 *939:A 22.7286 
3 *360:12 *1082:A0 9.3 
*END

*D_NET *361 0.00313328
*CONN
*I *1072:A0 I *D sky130_fd_sc_hd__mux2_1
*I *936:A I *D sky130_fd_sc_hd__or2b_1
*I *935:A2 I *D sky130_fd_sc_hd__a221oi_2
*I *1170:Q O *D sky130_fd_sc_hd__dfrtp_1
*CAP
1 *1072:A0 0.00029808
2 *936:A 0.000142186
3 *935:A2 5.21282e-05
4 *1170:Q 7.07322e-05
5 *361:12 0.000620397
6 *361:8 0.000794896
7 *933:A *361:12 0.000397141
8 *935:A1 *935:A2 0.000100037
9 *935:A1 *936:A 4.4545e-05
10 *954:A *1072:A0 5.38444e-06
11 *1072:S *1072:A0 0.000146187
12 *1092:A1 *361:8 7.85994e-05
13 *1092:A1 *361:12 0.000111023
14 *1106:B *361:12 0.000140375
15 *126:265 *1072:A0 2.93922e-05
16 *127:16 *361:8 7.85137e-05
17 *239:22 *935:A2 2.36643e-05
18 *253:20 *361:8 0
19 *253:20 *361:12 0
*RES
1 *1170:Q *361:8 15.7464 
2 *361:8 *361:12 14.0357 
3 *361:12 *935:A2 10.6571 
4 *361:12 *936:A 11.3893 
5 *361:8 *1072:A0 18.8714 
*END

*D_NET *362 0.00314397
*CONN
*I *938:A2 I *D sky130_fd_sc_hd__o2111a_1
*I *935:B1 I *D sky130_fd_sc_hd__a221oi_2
*I *1074:A0 I *D sky130_fd_sc_hd__mux2_1
*I *1171:Q O *D sky130_fd_sc_hd__dfrtp_1
*CAP
1 *938:A2 0
2 *935:B1 0.000157439
3 *1074:A0 0.000338572
4 *1171:Q 0
5 *362:27 0.000539814
6 *362:4 0.000720947
7 *935:B1 *964:B2 1.94879e-05
8 *935:B1 *375:20 0.000214647
9 *362:27 *938:B1 2.07878e-05
10 *938:A1 *935:B1 7.6323e-05
11 *938:C1 *362:27 2.07394e-05
12 *1020:A1 *1074:A0 0.00034144
13 *1075:A *1074:A0 0.000413134
14 *1171:D *1074:A0 2.83425e-05
15 *1171:D *362:27 9.84673e-05
16 *108:12 *935:B1 1.45648e-05
17 *239:22 *935:B1 0.000139266
*RES
1 *1171:Q *362:4 9.3 
2 *362:4 *1074:A0 26.6214 
3 *362:4 *362:27 6.64286 
4 *362:27 *935:B1 22.5143 
5 *362:27 *938:A2 9.3 
*END

*D_NET *363 0.00259922
*CONN
*I *937:B_N I *D sky130_fd_sc_hd__or2b_1
*I *934:A_N I *D sky130_fd_sc_hd__and2b_1
*I *1076:A0 I *D sky130_fd_sc_hd__mux2_1
*I *1172:Q O *D sky130_fd_sc_hd__dfrtp_1
*CAP
1 *937:B_N 0.000274202
2 *934:A_N 0
3 *1076:A0 0.000604633
4 *1172:Q 0
5 *363:21 0.000379606
6 *363:4 0.000710038
7 *1020:A1 *937:B_N 4.75428e-05
8 *1024:A0 *1076:A0 0.000153047
9 *1075:A *937:B_N 9.25014e-06
10 *1188:RESET_B *937:B_N 0.000227532
11 *1188:RESET_B *1076:A0 6.09789e-05
12 *1188:RESET_B *363:21 2.77289e-05
13 *102:54 *937:B_N 0.00010466
*RES
1 *1172:Q *363:4 9.3 
2 *363:4 *1076:A0 26.1214 
3 *363:4 *363:21 1.67857 
4 *363:21 *934:A_N 9.3 
5 *363:21 *937:B_N 24.1036 
*END

*D_NET *364 0.00342072
*CONN
*I *948:A2 I *D sky130_fd_sc_hd__o21ai_1
*I *951:A2 I *D sky130_fd_sc_hd__a2111o_2
*I *1066:A0 I *D sky130_fd_sc_hd__mux2_1
*I *1167:Q O *D sky130_fd_sc_hd__dfrtp_1
*CAP
1 *948:A2 0.000141036
2 *951:A2 0.000306445
3 *1066:A0 0.000372131
4 *1167:Q 0.000436507
5 *364:17 0.000447481
6 *364:6 0.000808637
7 *948:A1 *948:A2 5.65955e-05
8 *951:B1 *951:A2 9.83388e-05
9 *951:C1 *951:A2 2.36643e-05
10 *951:D1 *948:A2 0.000119618
11 *951:D1 *951:A2 0.000250222
12 *1066:S *1066:A0 6.05161e-06
13 *1167:CLK *1066:A0 9.17317e-05
14 *1167:RESET_B *951:A2 1.04707e-05
15 *93:213 *951:A2 3.70023e-05
16 *124:10 *951:A2 4.53295e-05
17 *124:55 *364:6 5.54283e-05
18 *256:471 *951:A2 9.33652e-05
19 *256:471 *364:6 2.06695e-05
*RES
1 *1167:Q *364:6 14.3536 
2 *364:6 *1066:A0 15.1929 
3 *364:6 *364:17 4.5 
4 *364:17 *951:A2 20.4071 
5 *364:17 *948:A2 16.8179 
*END

*D_NET *365 0.00191655
*CONN
*I *949:B I *D sky130_fd_sc_hd__xor2_1
*I *1068:A0 I *D sky130_fd_sc_hd__mux2_1
*I *1168:Q O *D sky130_fd_sc_hd__dfrtp_1
*CAP
1 *949:B 0
2 *1068:A0 0.000199687
3 *1168:Q 0.00025868
4 *365:12 0.000458367
5 *365:12 *946:B 7.83659e-05
6 *365:12 *1225:A 1.83136e-05
7 *949:A *1068:A0 1.19813e-05
8 *1068:S *1068:A0 5.49995e-05
9 *1250:A *1068:A0 0.00018444
10 *93:213 *365:12 0.000234864
11 *275:14 *1068:A0 0.000314907
12 *325:54 *1068:A0 0.000101948
*RES
1 *1168:Q *365:12 23.2107 
2 *365:12 *1068:A0 15.7286 
3 *365:12 *949:B 9.3 
*END

*D_NET *366 0.000592718
*CONN
*I *950:B I *D sky130_fd_sc_hd__xor2_1
*I *1212:A I *D sky130_fd_sc_hd__dlygate4sd3_1
*I *1169:Q O *D sky130_fd_sc_hd__dfrtp_1
*CAP
1 *950:B 7.68188e-05
2 *1212:A 0
3 *1169:Q 0.0001585
4 *366:6 0.000235319
5 *256:296 *366:6 0.000122081
*RES
1 *1169:Q *366:6 12.3 
2 *366:6 *1212:A 9.3 
3 *366:6 *950:B 10.6571 
*END

*D_NET *367 0.0035522
*CONN
*I *959:A2 I *D sky130_fd_sc_hd__a2111oi_1
*I *947:A2 I *D sky130_fd_sc_hd__a2111o_1
*I *944:A2 I *D sky130_fd_sc_hd__o21ai_1
*I *1060:A0 I *D sky130_fd_sc_hd__mux2_1
*I *1164:Q O *D sky130_fd_sc_hd__dfrtp_1
*CAP
1 *959:A2 0.000210063
2 *947:A2 5.62181e-05
3 *944:A2 2.9269e-05
4 *1060:A0 0.000188391
5 *1164:Q 0.000291114
6 *367:36 0.000333627
7 *367:23 0.000498469
8 *367:6 0.000881359
9 *944:A2 *944:B1 0.00010096
10 *944:A1 *944:A2 5.71472e-05
11 *946:A *944:A2 4.58976e-05
12 *947:B1 *947:A2 5.49865e-05
13 *947:B1 *959:A2 8.43535e-06
14 *947:C1 *367:23 0
15 *947:C1 *367:36 0
16 *959:A1 *944:A2 0.000129515
17 *959:A1 *959:A2 0.000160119
18 *959:A1 *367:36 9.82903e-05
19 *959:C1 *367:23 2.66026e-05
20 *959:C1 *367:36 6.8646e-06
21 *1060:S *1060:A0 3.07555e-05
22 *1061:A *1060:A0 0
23 *1061:A *367:23 0.000125731
24 *1164:D *367:23 7.83659e-05
25 *1164:RESET_B *1060:A0 1.97381e-05
26 *1164:RESET_B *367:6 2.51837e-05
27 *1199:A *1060:A0 1.19309e-05
28 *98:59 *367:36 2.48421e-05
29 *239:59 *1060:A0 0
30 *243:31 *367:23 0
31 *243:35 *367:23 0
32 *256:165 *367:6 5.83242e-05
*RES
1 *1164:Q *367:6 12.7107 
2 *367:6 *1060:A0 22.0679 
3 *367:6 *367:23 11.0536 
4 *367:23 *944:A2 15.5679 
5 *367:23 *367:36 6.14286 
6 *367:36 *947:A2 10.8179 
7 *367:36 *959:A2 11.8893 
*END

*D_NET *368 0.00177787
*CONN
*I *945:B I *D sky130_fd_sc_hd__xor2_1
*I *1222:A I *D sky130_fd_sc_hd__dlygate4sd3_1
*I *1165:Q O *D sky130_fd_sc_hd__dfrtp_1
*CAP
1 *945:B 0.000124114
2 *1222:A 0.000211115
3 *1165:Q 4.07092e-05
4 *368:8 0.000375939
5 *945:A *945:B 1.33343e-05
6 *946:A *945:B 0.000139907
7 *1062:A0 *1222:A 0.000112995
8 *1062:A0 *368:8 7.83587e-05
9 *1120:A *945:B 0.000100726
10 *1120:A *368:8 2.82057e-05
11 *1164:RESET_B *1222:A 0.000230482
12 *325:54 *945:B 0.000196262
13 *325:54 *368:8 0.000125724
*RES
1 *1165:Q *368:8 15.4429 
2 *368:8 *1222:A 18.4429 
3 *368:8 *945:B 17.7107 
*END

*D_NET *369 0.00158779
*CONN
*I *946:B I *D sky130_fd_sc_hd__xor2_1
*I *1225:A I *D sky130_fd_sc_hd__dlygate4sd3_1
*I *1166:Q O *D sky130_fd_sc_hd__dfrtp_1
*CAP
1 *946:B 0.000198743
2 *1225:A 0.00018051
3 *1166:Q 0.000157824
4 *369:8 0.000537078
5 *946:A *946:B 3.50166e-05
6 *1064:A0 *369:8 7.83659e-05
7 *1165:D *369:8 0.000127439
8 *1249:A *946:B 1.33343e-05
9 *93:122 *369:8 4.94362e-05
10 *93:213 *946:B 5.38886e-05
11 *93:213 *369:8 5.94737e-05
12 *253:56 *946:B 0
13 *253:56 *369:8 0
14 *365:12 *946:B 7.83659e-05
15 *365:12 *1225:A 1.83136e-05
*RES
1 *1166:Q *369:8 17.8714 
2 *369:8 *1225:A 16.8 
3 *369:8 *946:B 17.9607 
*END

*D_NET *370 0.00502173
*CONN
*I *1054:A0 I *D sky130_fd_sc_hd__mux2_1
*I *923:A I *D sky130_fd_sc_hd__inv_2
*I *931:A2 I *D sky130_fd_sc_hd__a221o_1
*I *1161:Q O *D sky130_fd_sc_hd__dfrtp_1
*CAP
1 *1054:A0 0.000443653
2 *923:A 0.000280332
3 *931:A2 0.000275723
4 *1161:Q 0
5 *370:8 0.00121098
6 *370:4 0.00109858
7 *931:A2 *928:B 7.19357e-05
8 *931:A2 *371:8 0.000222175
9 *931:A1 *923:A 0
10 *931:A1 *931:A2 0.000117207
11 *931:B1 *931:A2 0.000117207
12 *1005:A1 *923:A 0
13 *1056:A0 *1054:A0 0.00022867
14 *1161:CLK *923:A 7.98856e-05
15 *1161:CLK *931:A2 7.74068e-05
16 *1161:D *923:A 0
17 *99:51 *370:8 0.000482679
18 *256:12 *1054:A0 0.000137832
19 *256:16 *1054:A0 0.000124749
20 *262:12 *931:A2 5.27092e-05
*RES
1 *1161:Q *370:4 9.3 
2 *370:4 *370:8 13.25 
3 *370:8 *931:A2 20.5589 
4 *370:8 *923:A 18.8536 
5 *370:4 *1054:A0 25.5857 
*END

*D_NET *371 0.00334098
*CONN
*I *1218:A I *D sky130_fd_sc_hd__dlygate4sd3_1
*I *927:B I *D sky130_fd_sc_hd__or2_1
*I *928:B I *D sky130_fd_sc_hd__nand2_1
*I *1162:Q O *D sky130_fd_sc_hd__dfrtp_1
*CAP
1 *1218:A 0.000126912
2 *927:B 0
3 *928:B 0.000346349
4 *1162:Q 0
5 *371:8 0.000967072
6 *371:4 0.000747635
7 *931:A1 *928:B 0.000180207
8 *931:A2 *928:B 7.19357e-05
9 *931:A2 *371:8 0.000222175
10 *931:B2 *928:B 3.9733e-05
11 *1162:CLK *371:8 0.000182804
12 *1162:D *371:8 4.18747e-05
13 *1162:RESET_B *371:8 0.0001326
14 *126:177 *928:B 0.000124012
15 *256:12 *1218:A 3.14003e-05
16 *256:16 *1218:A 0.000126272
*RES
1 *1162:Q *371:4 9.3 
2 *371:4 *371:8 11.9464 
3 *371:8 *928:B 23.7821 
4 *371:8 *927:B 9.3 
5 *371:4 *1218:A 20.9786 
*END

*D_NET *372 0.00220409
*CONN
*I *1224:A I *D sky130_fd_sc_hd__dlygate4sd3_1
*I *930:B I *D sky130_fd_sc_hd__xor2_1
*I *1163:Q O *D sky130_fd_sc_hd__dfrtp_1
*CAP
1 *1224:A 0.000372831
2 *930:B 0.000340431
3 *1163:Q 0
4 *372:4 0.000713262
5 *978:A *1224:A 0
6 *1058:A0 *1224:A 0.000226513
7 *1058:A1 *1224:A 0.000114655
8 *1058:S *1224:A 2.89114e-05
9 *1132:D *1224:A 8.71847e-05
10 *1163:RESET_B *930:B 6.42704e-05
11 *1163:RESET_B *1224:A 8.75082e-05
12 *1164:RESET_B *930:B 7.43578e-06
13 *1164:RESET_B *1224:A 0
14 *102:112 *930:B 3.29297e-05
15 *243:66 *930:B 0.000128154
*RES
1 *1163:Q *372:4 9.3 
2 *372:4 *930:B 24.4429 
3 *372:4 *1224:A 17.5857 
*END

*D_NET *373 0.00305226
*CONN
*I *1122:A1 I *D sky130_fd_sc_hd__a21oi_1
*I *957:A I *D sky130_fd_sc_hd__inv_2
*I *955:B I *D sky130_fd_sc_hd__and3b_1
*I *1099:A I *D sky130_fd_sc_hd__nand2_2
*I *1186:Q O *D sky130_fd_sc_hd__dfrtp_1
*CAP
1 *1122:A1 0.000124569
2 *957:A 3.21587e-05
3 *955:B 0.000218943
4 *1099:A 0
5 *1186:Q 0.000428081
6 *373:24 0.00049495
7 *373:18 0.000407848
8 *373:12 0.000652332
9 *955:A_N *955:B 0.000120732
10 *955:A_N *373:24 4.1331e-06
11 *956:A *955:B 0.00017697
12 *956:A *373:12 0
13 *956:A *373:24 5.80706e-06
14 *967:A1 *1122:A1 0.000183021
15 *1123:B *957:A 1.3701e-05
16 *1123:B *373:12 0
17 *1202:A *373:24 9.90367e-05
18 *125:10 *373:24 4.48206e-05
19 *129:10 *373:24 4.51611e-05
*RES
1 *1186:Q *373:12 19.0679 
2 *373:12 *373:18 6.07143 
3 *373:18 *373:24 8.73214 
4 *373:24 *1099:A 13.8 
5 *373:24 *955:B 19.6929 
6 *373:18 *957:A 10.0321 
7 *373:12 *1122:A1 15.5679 
*END

*D_NET *374 0.00344281
*CONN
*I *942:A I *D sky130_fd_sc_hd__and4_1
*I *1247:A I *D sky130_fd_sc_hd__dlygate4sd3_1
*I *964:A1 I *D sky130_fd_sc_hd__a22oi_1
*I *1187:Q O *D sky130_fd_sc_hd__dfrtp_1
*CAP
1 *942:A 8.70631e-05
2 *1247:A 0.000208648
3 *964:A1 0.000691176
4 *1187:Q 0
5 *374:17 0.000363923
6 *374:4 0.000759388
7 *942:C *942:A 0.000100155
8 *942:D *942:A 0.000186817
9 *964:A2 *964:A1 0.00013931
10 *964:B1 *964:A1 1.6572e-05
11 *1187:D *964:A1 0.000139338
12 *102:108 *1247:A 0.000334006
13 *115:14 *964:A1 0.000202833
14 *115:14 *374:17 3.67252e-05
15 *246:52 *942:A 2.78535e-05
16 *256:702 *1247:A 5.06672e-05
17 *355:61 *1247:A 9.83388e-05
*RES
1 *1187:Q *374:4 9.3 
2 *374:4 *964:A1 18.8893 
3 *374:4 *374:17 1.375 
4 *374:17 *1247:A 23.6214 
5 *374:17 *942:A 11.8893 
*END

*D_NET *375 0.00443211
*CONN
*I *1248:A I *D sky130_fd_sc_hd__dlygate4sd3_1
*I *938:B1 I *D sky130_fd_sc_hd__o2111a_1
*I *964:B2 I *D sky130_fd_sc_hd__a22oi_1
*I *1188:Q O *D sky130_fd_sc_hd__dfrtp_1
*CAP
1 *1248:A 9.63423e-05
2 *938:B1 1.26462e-05
3 *964:B2 0.000968596
4 *1188:Q 0.000287987
5 *375:20 0.00123449
6 *375:10 0.00063758
7 *933:A *1248:A 0.000225988
8 *935:B1 *964:B2 1.94879e-05
9 *935:B1 *375:20 0.000214647
10 *935:C1 *375:10 5.33005e-05
11 *935:C1 *375:20 0
12 *938:A1 *375:20 8.46259e-06
13 *938:C1 *938:B1 5.49489e-05
14 *938:D1 *375:20 5.77037e-05
15 *1188:RESET_B *375:10 6.60867e-05
16 *93:213 *964:B2 3.67279e-06
17 *106:10 *375:20 0.000106272
18 *129:59 *964:B2 2.06112e-05
19 *135:21 *964:B2 3.10376e-05
20 *239:22 *375:20 1.21258e-05
21 *253:20 *375:10 0.000148903
22 *253:20 *375:20 0.00015043
23 *362:27 *938:B1 2.07878e-05
*RES
1 *1188:Q *375:10 18.3357 
2 *375:10 *375:20 15.2679 
3 *375:20 *964:B2 23.2697 
4 *375:20 *938:B1 14.3357 
5 *375:10 *1248:A 15.9786 
*END

*D_NET *376 0.00118449
*CONN
*I *966:B1 I *D sky130_fd_sc_hd__o21ai_1
*I *1116:B1 I *D sky130_fd_sc_hd__o31a_1
*I *948:B1 I *D sky130_fd_sc_hd__o21ai_1
*I *1189:Q O *D sky130_fd_sc_hd__dfrtp_1
*CAP
1 *966:B1 8.99323e-05
2 *1116:B1 1.16062e-05
3 *948:B1 0.000168014
4 *1189:Q 0
5 *376:8 0.000232958
6 *376:4 0.00014327
7 *948:A1 *948:B1 5.65955e-05
8 *951:D1 *948:B1 0
9 *967:D1 *966:B1 5.38717e-06
10 *1116:A2 *948:B1 4.13122e-06
11 *1116:A2 *1116:B1 5.52302e-05
12 *1116:A2 *376:8 2.09266e-05
13 *93:213 *948:B1 0
14 *93:213 *376:8 0
15 *124:14 *948:B1 0.000146208
16 *130:10 *376:8 7.85137e-05
17 *130:18 *966:B1 6.05161e-06
18 *253:56 *948:B1 9.20513e-06
19 *253:56 *1116:B1 5.52302e-05
20 *253:56 *376:8 0.000101233
*RES
1 *1189:Q *376:4 9.3 
2 *376:4 *376:8 6.14286 
3 *376:8 *948:B1 16.8893 
4 *376:8 *1116:B1 14.3357 
5 *376:4 *966:B1 10.8714 
*END

*D_NET *377 0.00369721
*CONN
*I *960:A I *D sky130_fd_sc_hd__inv_2
*I *1119:B1 I *D sky130_fd_sc_hd__o31a_1
*I *944:B1 I *D sky130_fd_sc_hd__o21ai_1
*I *1190:Q O *D sky130_fd_sc_hd__dfrtp_1
*CAP
1 *960:A 3.94769e-05
2 *1119:B1 3.15414e-05
3 *944:B1 0.000258629
4 *1190:Q 0.000261495
5 *377:27 0.000429802
6 *377:8 0.000878908
7 *944:A1 *944:B1 2.14757e-05
8 *944:A2 *944:B1 0.00010096
9 *946:A *944:B1 0.000273269
10 *947:C1 *944:B1 6.82514e-05
11 *952:B *960:A 9.90431e-05
12 *961:A1 *377:27 1.17968e-05
13 *961:B1 *377:27 0.000154486
14 *1094:B1 *960:A 9.92409e-05
15 *1094:B1 *1119:B1 2.14658e-05
16 *1119:A3 *1119:B1 9.80173e-05
17 *1190:D *377:27 7.74068e-05
18 *99:69 *377:8 0.000184987
19 *116:18 *960:A 8.46829e-05
20 *116:18 *1119:B1 0.000139907
21 *239:55 *377:27 0.000221589
22 *239:59 *944:B1 0.000115637
23 *239:59 *377:27 2.51379e-05
*RES
1 *1190:Q *377:8 17.2107 
2 *377:8 *944:B1 20.7643 
3 *377:8 *377:27 13.1786 
4 *377:27 *1119:B1 10.6571 
5 *377:27 *960:A 11.0679 
*END

*D_NET *378 0.000115673
*CONN
*I *924:A I *D sky130_fd_sc_hd__inv_2
*I *1191:Q O *D sky130_fd_sc_hd__dfrtp_1
*CAP
1 *924:A 4.19026e-05
2 *1191:Q 4.19026e-05
3 *97:8 *924:A 3.18676e-05
*RES
1 *1191:Q *924:A 19.5643 
*END
